output.log
LAMMPS (30 Jul 2021)
# 2d Lennard-Jones


# 出力関係のパラメータ
variable        run equal 40000000
variable        thermo equal ${run}/1000 # 分母の数がlogで生成される行数になる.
variable        thermo equal 40000000/1000 
variable        dump equal ${run}/1000 # 分母の数がlammpstrjで生成される行数になる.
variable        dump equal 40000000/1000 
variable        image_step equal ${run}/4 # 分母の数+1枚の画像を作成.
variable        image_step equal 40000000/4 

# 重要なパラメータ
variable        SEED equal 202035
variable        Ay equal 50 # 粒子生成に用いるy方向でのセル数.
variable        Ax equal ${Ay}/2 # 粒子生成に用いるx方向でのセル数.
variable        Ax equal 50/2 
variable        rho equal 0.4 # 密度. 密度と粒子数から体積が決まる.
variable        trange equal 5 # 各熱浴の幅.
variable        gap equal 0.5 # boxとcatomのずれ. ずらさないと粒子が消えてしまう.
# lo,hi が単に座標の小さい大きいであることに注意.
variable        T equal 0.43 # 各熱浴の目標温度の中間, これを初期温度に設定.
variable        dT equal 0.02
variable        thot equal ${T}+(${dT}/2) # 座標の小さい方の熱浴の目標温度.
variable        thot equal 0.43+(${dT}/2) 
variable        thot equal 0.43+(0.02/2) 
variable        tcold equal ${T}-(${dT}/2) # 座標の大きい方の熱浴の目標温度.
variable        tcold equal 0.43-(${dT}/2) 
variable        tcold equal 0.43-(0.02/2) 
variable        g equal 0.0004 # 重力加速度.
# 粒子-粒子間のLJポテンシャル
variable        epsilon_pair equal 1.0 # LJポテンシャルのepsilon; ポテンシャルの深さ.
variable        sigma_pair equal 1.0 # LJポテンシャルのsigma; 衝突直径.
variable        rc_pair equal 3.0 # 典型的なカットオフ長.
# 壁-粒子間のLJポテンシャル
variable        Rd equal 0.0 # 乾き具合.
variable        Rt equal 0.5 # 壁の厚み.
variable        Ra equal 1.877538 # 濡れ具合.
variable        epsilon_wall equal 1.0-${Rd} # LJポテンシャルのepsilon; ポテンシャルの深さ.
variable        epsilon_wall equal 1.0-0 
variable        sigma_wall equal 0.5+${Rt} # LJポテンシャルのsigma; 衝突直径.
variable        sigma_wall equal 0.5+0.5 
variable        rc_wall equal 1.122462+${Ra} # WCAポテンシャルになるようなカットオフ長+alpha*sigma_wall.
variable        rc_wall equal 1.122462+1.877538 

# 領域関係のパラメータ
  # 縦長のとき
variable        box_xlo equal 0 # xの小さい方の直線.
variable        box_xhi equal ${Ax} # xの大きい方の直線.
variable        box_xhi equal 25 
variable        box_ylo equal -${gap} # yの小さい方の直線.
variable        box_ylo equal -0.5 
variable        box_yhi equal ${Ay}-${gap} # yの大きい方の直線.
variable        box_yhi equal 50-${gap} 
variable        box_yhi equal 50-0.5 
variable        hotlo equal -${gap} #  熱浴で温度の低い方の小さい方の直線.
variable        hotlo equal -0.5 
variable        hothi equal -${gap}+${trange} # 熱浴で温度の低い方の大きい方の直線.
variable        hothi equal -0.5+${trange} 
variable        hothi equal -0.5+5 
variable        coldlo equal ${Ay}-${gap}-${trange} # 熱浴で温度の高い方の小さい方の直線.
variable        coldlo equal 50-${gap}-${trange} 
variable        coldlo equal 50-0.5-${trange} 
variable        coldlo equal 50-0.5-5 
variable        coldhi equal ${Ay}-${gap} # 熱浴で温度の高い方の大きい方の直線.
variable        coldhi equal 50-${gap} 
variable        coldhi equal 50-0.5 

# 系の設定
units		        lj # LJ単位系.
atom_style	    atomic # 粒子.
dimension       2 # 次元.
timestep        0.005 # MDシミュレーションのtimestep.
boundary        p f p # x=l,y=m,z=nの直線が周期境界条件.
lattice		      sq ${rho} # 粒子の初期配置. sq; 正方形セルの左隅に1つ置く.
lattice		      sq 0.4 
Lattice spacing in x,y,z = 1.5811388 1.5811388 1.5811388
region		      box block ${box_xlo} ${box_xhi} ${box_ylo} ${box_yhi} -0.1 0.1 # 系の領域設定.
region		      box block 0 ${box_xhi} ${box_ylo} ${box_yhi} -0.1 0.1 
region		      box block 0 25 ${box_ylo} ${box_yhi} -0.1 0.1 
region		      box block 0 25 -0.5 ${box_yhi} -0.1 0.1 
region		      box block 0 25 -0.5 49.5 -0.1 0.1 
region          catom block 0 ${Ax} 0 ${Ay} -0.1 0.1 # 粒子生成の領域設定.
region          catom block 0 25 0 ${Ay} -0.1 0.1 
region          catom block 0 25 0 50 -0.1 0.1 
create_box	    1 box # 系の生成.
Created orthogonal box = (0.0000000 -0.79056942 -0.15811388) to (39.528471 78.266372 0.15811388)
  2 by 4 by 1 MPI processor grid
create_atoms    1 region catom # 粒子の生成.
Created 1250 atoms
  using lattice units in orthogonal box = (0.0000000 -0.79056942 -0.15811388) to (39.528471 78.266372 0.15811388)
  create_atoms CPU = 0.001 seconds
mass		        1 1.0 # 粒子の設定.
velocity	      all create ${T} ${SEED} dist gaussian # 粒子に温度tを目標とする初期速度をガウス分布に従って与える.
velocity	      all create 0.43 ${SEED} dist gaussian 
velocity	      all create 0.43 202035 dist gaussian 

  # 縦長のとき
region          cold block INF INF ${coldlo} ${coldhi} -0.1 0.1 # 熱浴Cの領域.
region          cold block INF INF 44.5 ${coldhi} -0.1 0.1 
region          cold block INF INF 44.5 49.5 -0.1 0.1 
region          hot block  INF INF ${hotlo} ${hothi} -0.1 0.1 # 熱浴Hの領域.
region          hot block  INF INF -0.5 ${hothi} -0.1 0.1 
region          hot block  INF INF -0.5 4.5 -0.1 0.1 

# 各熱浴領域の温度を計算
compute         Tcold all temp/region cold # c_Tcoldでcold熱浴領域の温度を取得.
compute         Thot all temp/region hot # c_Tcoldでcold熱浴領域の温度を取得.

# 粒子-粒子間相互作用ポテンシャル
pair_style lj/cut ${rc_pair}
pair_style lj/cut 3
pair_coeff	    1 1 ${epsilon_pair} ${sigma_pair} ${rc_pair}
pair_coeff	    1 1 1 ${sigma_pair} ${rc_pair}
pair_coeff	    1 1 1 1 ${rc_pair}
pair_coeff	    1 1 1 1 3
pair_modify     shift yes # ポテンシャルエネルギーが0になる距離がカットオフ長になるように全体的にシフトアップする.

# 高速化コマンド. neighbor list に入れる距離指定.
neighbor	      0.3 bin
neigh_modify    every 1 delay 0 check yes

# システムに他の操作がない場合にnveアンサンブルに一致するだけで, 今回の系はlangevin 熱浴を用いた nvt アンサンブルであることに注意.
fix		          1 all nve

# 壁-粒子間相互作用ポテンシャル
# 縦長のとき
fix             wallylo all wall/lj126 ylo EDGE ${epsilon_wall} ${sigma_wall} ${rc_wall} units box pbc yes
fix             wallylo all wall/lj126 ylo EDGE 1 ${sigma_wall} ${rc_wall} units box pbc yes
fix             wallylo all wall/lj126 ylo EDGE 1 1 ${rc_wall} units box pbc yes
fix             wallylo all wall/lj126 ylo EDGE 1 1 3 units box pbc yes
fix             wallyhi all wall/lj126 yhi EDGE ${epsilon_wall} ${sigma_wall} ${rc_wall} units box pbc yes
fix             wallyhi all wall/lj126 yhi EDGE 1 ${sigma_wall} ${rc_wall} units box pbc yes
fix             wallyhi all wall/lj126 yhi EDGE 1 1 ${rc_wall} units box pbc yes
fix             wallyhi all wall/lj126 yhi EDGE 1 1 3 units box pbc yes

# langevin 熱浴
fix             hot all langevin ${T} ${T} 1.0 ${SEED} tally no # 熱浴Hが温度Tになるようにする.
fix             hot all langevin 0.43 ${T} 1.0 ${SEED} tally no 
fix             hot all langevin 0.43 0.43 1.0 ${SEED} tally no 
fix             hot all langevin 0.43 0.43 1.0 202035 tally no 
fix             cold all langevin ${T} ${T} 1.0 ${SEED} tally no # 熱浴Cが温度Tになるようにする.
fix             cold all langevin 0.43 ${T} 1.0 ${SEED} tally no 
fix             cold all langevin 0.43 0.43 1.0 ${SEED} tally no 
fix             cold all langevin 0.43 0.43 1.0 202035 tally no 
fix_modify      hot temp Thot
fix_modify      cold temp Tcold

# 重力場
fix             Gravity all gravity ${g} vector 0 -1 0
fix             Gravity all gravity 0.0004 vector 0 -1 0

# 重力のみで緩和させるとき
# run             200000 # 重力のみでの平衡までの緩和時間
# unfix           hot # 熱浴Hについての設定の解除.
# unfix           cold # 熱浴Cについての設定の解除.

fix             hot all langevin ${thot} ${thot} 1.0 ${SEED} tally no # 熱浴が温度tloになるようにする.
fix             hot all langevin 0.44 ${thot} 1.0 ${SEED} tally no 
fix             hot all langevin 0.44 0.44 1.0 ${SEED} tally no 
fix             hot all langevin 0.44 0.44 1.0 202035 tally no 
fix             cold all langevin ${tcold} ${tcold} 1.0 ${SEED} tally no # 熱浴が温度thiになるようにする.
fix             cold all langevin 0.42 ${tcold} 1.0 ${SEED} tally no 
fix             cold all langevin 0.42 0.42 1.0 ${SEED} tally no 
fix             cold all langevin 0.42 0.42 1.0 202035 tally no 
fix_modify      hot temp Thot
fix_modify      cold temp Tcold

# 重心計算(Center of Mass)
compute         CoM all com # c_CoM[1]でXg, c_CoM[2]でYgを取得.


# 出力コマンド
# VMD
dump		    id all custom ${dump} output.lammpstrj id x y vx vy
dump		    id all custom 40000 output.lammpstrj id x y vx vy

# 画像
# dump		    2 all image ${image_step} image.*.jpg type type
# dump_modify	    2 pad 3

# log
thermo_style    custom step time temp pe ke etotal c_CoM[2] # 出力する物理量.

# YAML
fix             extra all print ${thermo} """
- step: $(step)
  time: $(time)
  temp: $(temp)
  ke: $(ke)
  pe: $(pe)
  etotal: $(etotal)
  Yg: $(c_CoM[2])""" file output.yaml screen no
fix             extra all print 40000 """
- step: $(step)
  time: $(time)
  temp: $(temp)
  ke: $(ke)
  pe: $(pe)
  etotal: $(etotal)
  Yg: $(c_CoM[2])""" file output.yaml screen no

# #  一次元プロファイル（今は温度と密度だけ計算と出力）
# compute         chunk all chunk/atom bin/1d y lower 3.0 units box
# fix             tempp all ave/chunk 100000 1 100000 chunk temp file temp_profile.profile
# fix             rhop all ave/chunk 100000 1 100000 chunk density/number file rho_profile.profile

thermo		      ${thermo} # 熱力学量の出力.
thermo		      40000 
thermo_modify norm no # 示量的な熱力学量に調整.

run		          ${run} # 実行.
run		          40000000 
Neighbor list info ...
  update every 1 steps, delay 0 steps, check yes
  max neighbors/atom: 2000, page size: 100000
  master list distance cutoff = 3.3
  ghost atom cutoff = 3.3
  binsize = 1.65, bins = 24 48 1
  1 neighbor lists, perpetual/occasional/extra = 1 0 0
  (1) pair lj/cut, perpetual
      attributes: half, newton on
      pair build: half/bin/atomonly/newton
      stencil: half/bin/2d
      bin: standard
Per MPI rank memory allocation (min/avg/max) = 4.306 | 4.306 | 4.306 Mbytes
Step Time Temp PotEng KinEng TotEng c_CoM[2] 
       0            0         0.43   -643.83615       537.07   -106.76615    38.737901 
   40000          200   0.47049897   -2266.8447    587.65321   -1679.1915    39.475564 
   80000          400   0.42133607   -2382.4078    526.24875    -1856.159    38.799186 
  120000          600   0.44267139   -2501.3167    552.89656   -1948.4202    39.980709 
  160000          800   0.44444907   -2478.2059    555.11689    -1923.089     40.22342 
  200000         1000   0.44489329   -2505.6746    555.67172   -1950.0029    40.024943 
  240000         1200   0.42570443   -2565.4588    531.70483    -2033.754    40.182104 
  280000         1400   0.44390946   -2522.8443    554.44292   -1968.4014    40.867015 
  320000         1600   0.43641345   -2560.4086    545.08039   -2015.3282    40.966194 
  360000         1800   0.43578426   -2484.3697    544.29454   -1940.0752    40.656969 
  400000         2000   0.43873751   -2535.7591    547.98315   -1987.7759    40.750653 
  440000         2200   0.45732969   -2515.3872    571.20479   -1944.1824    41.415824 
  480000         2400   0.43605789   -2511.2549     544.6363   -1966.6186    41.906469 
  520000         2600   0.43374877   -2521.6434    541.75221   -1979.8912    41.794187 
  560000         2800    0.4236895   -2511.2754    529.18818   -1982.0873    40.925857 
  600000         3000   0.42596589    -2555.592     532.0314   -2023.5606    41.641236 
  640000         3200   0.39986268   -2564.1115    499.42849    -2064.683    42.236681 
  680000         3400   0.43369522   -2550.5287    541.68532   -2008.8434    42.126465 
  720000         3600   0.42239445   -2522.8539    527.57067   -1995.2832    42.034204 
  760000         3800   0.42514172   -2557.8537    531.00201   -2026.8517    42.164606 
  800000         4000   0.42382741   -2470.3402    529.36044   -1940.9797    41.699189 
  840000         4200   0.42358941   -2466.1636    529.06317   -1937.1005    42.381954 
  880000         4400   0.41682837   -2526.8462    520.61863   -2006.2276    42.664457 
  920000         4600   0.41810318   -2482.1668    522.21088    -1959.956    42.779936 
  960000         4800   0.43456267   -2525.1388    542.76878     -1982.37    42.363066 
 1000000         5000   0.46341384   -2495.7675    578.80389   -1916.9637     42.00233 
 1040000         5200   0.44789889   -2515.7383    559.42571   -1956.3126    42.498085 
 1080000         5400   0.43887144   -2521.3707    548.15042   -1973.2203    42.532397 
 1120000         5600    0.4262799   -2479.0948     532.4236   -1946.6712    43.077422 
 1160000         5800   0.44209791   -2460.2134    552.18029   -1908.0331    43.809906 
 1200000         6000   0.42713661    -2596.554    533.49362   -2063.0604    43.009924 
 1240000         6200   0.42412244   -2492.8968    529.72893   -1963.1679    42.934302 
 1280000         6400   0.44264148   -2574.4908    552.85921   -2021.6316    43.307782 
 1320000         6600   0.42747626   -2566.2916    533.91785   -2032.3737    42.585948 
 1360000         6800   0.42487936   -2520.3094    530.67432   -1989.6351    43.224478 
 1400000         7000   0.43531049   -2534.1659     543.7028   -1990.4631     43.74711 
 1440000         7200   0.41538128   -2536.9702    518.81122    -2018.159    43.428247 
 1480000         7400    0.4195926   -2550.7903    524.07116   -2026.7192    43.279303 
 1520000         7600   0.41867731   -2535.4572    522.92797   -2012.5292    43.027547 
 1560000         7800   0.43470808   -2554.7514     542.9504    -2011.801    43.313897 
 1600000         8000   0.41145552   -2514.5068    513.90795   -2000.5988    44.592794 
 1640000         8200   0.43848957   -2515.8158    547.67347   -1968.1423    45.178598 
 1680000         8400   0.43261181   -2558.3103    540.33215   -2017.9781    44.966696 
 1720000         8600   0.45093624   -2546.0658    563.21936   -1982.8465     45.85554 
 1760000         8800   0.42974239   -2554.6347    536.74824   -2017.8865    46.353778 
 1800000         9000   0.43419396   -2528.9043    542.30826    -1986.596    46.610601 
 1840000         9200    0.4325944   -2572.2129     540.3104   -2031.9025    46.741086 
 1880000         9400   0.41592934   -2511.6651    519.49575   -1992.1694    46.621558 
 1920000         9600   0.42738362   -2576.3497    533.80214   -2042.5476    46.743393 
 1960000         9800   0.43134681   -2543.0082    538.75216   -2004.2561    47.122859 
 2000000        10000   0.41645569    -2600.551    520.15316   -2080.3978    47.538504 
 2040000        10200   0.43940968   -2555.5898    548.82269   -2006.7671    46.984428 
 2080000        10400    0.4276039   -2483.4226    534.07727   -1949.3454    47.549773 
 2120000        10600   0.41814325   -2505.7422    522.26092   -1983.4813    47.316715 
 2160000        10800   0.41855851   -2558.2686    522.77957    -2035.489    47.893197 
 2200000        11000   0.42654855   -2582.1158    532.75914   -2049.3566    47.633809 
 2240000        11200   0.42735824     -2558.72    533.77044   -2024.9496    47.981231 
 2280000        11400    0.4244799   -2518.5241    530.17539   -1988.3488     49.42315 
 2320000        11600    0.4423022   -2488.2503    552.43545   -1935.8149    50.211005 
 2360000        11800   0.43036439   -2466.0901    537.52513    -1928.565    51.431356 
 2400000        12000   0.43882178    -2515.793    548.08841   -1967.7046    51.734651 
 2440000        12200   0.42059632   -2543.8346     525.3248   -2018.5098    52.111098 
 2480000        12400   0.39651687   -2579.6077    495.24957   -2084.3581    51.962933 
 2520000        12600   0.43315844   -2546.1602    541.01489   -2005.1453    53.080767 
 2560000        12800   0.43182589   -2532.8181    539.35053   -1993.4675    52.152335 
 2600000        13000   0.43053136   -2514.2063    537.73367   -1976.4727    51.797198 
 2640000        13200   0.42022645   -2530.3798    524.86283    -2005.517     51.70198 
 2680000        13400   0.43823207   -2603.0018    547.35185   -2055.6499    52.121708 
 2720000        13600   0.43059044   -2607.8747    537.80746   -2070.0672    53.477208 
 2760000        13800   0.43910916   -2615.7764    548.44734   -2067.3291    53.870949 
 2800000        14000   0.44381467   -2576.3096    554.32453   -2021.9851    53.154836 
 2840000        14200    0.4188957   -2612.5947    523.20073   -2089.3939    53.828479 
 2880000        14400   0.40429472   -2632.8127     504.9641   -2127.8486    54.275041 
 2920000        14600    0.4231181   -2638.5811     528.4745   -2110.1066    54.334692 
 2960000        14800   0.40671814   -2640.0656    507.99096   -2132.0747    55.151127 
 3000000        15000   0.39974848   -2618.1924    499.28585   -2118.9065    55.163314 
 3040000        15200   0.41576924   -2645.7115    519.29578   -2126.4157     55.40526 
 3080000        15400   0.42220232   -2631.5454     527.3307   -2104.2147     54.82624 
 3120000        15600   0.42236123   -2676.5612    527.52917   -2149.0321    55.327219 
 3160000        15800   0.41434484   -2677.2121    517.51671   -2159.6954    54.914207 
 3200000        16000   0.42869008   -2638.1429    535.43392    -2102.709    55.213206 
 3240000        16200   0.42937257   -2620.3581    536.28634   -2084.0717    54.701583 
 3280000        16400   0.39345343   -2634.2802    491.42334   -2142.8569    54.807406 
 3320000        16600   0.42762713   -2693.7451    534.10628   -2159.6388    55.344836 
 3360000        16800   0.40272509   -2633.8448    503.00363   -2130.8412    55.226392 
 3400000        17000   0.42066172   -2659.0032    525.40648   -2133.5968    54.883977 
 3440000        17200   0.40475231   -2631.1157    505.53564   -2125.5801     54.76046 
 3480000        17400   0.41453489   -2616.4137    517.75408   -2098.6597    54.578572 
 3520000        17600    0.4262131   -2623.4747    532.34016   -2091.1346    54.634059 
 3560000        17800   0.42925315   -2539.3493    536.13719   -2003.2121    54.024988 
 3600000        18000   0.41726641   -2606.9294    521.16574   -2085.7637    53.684475 
 3640000        18200   0.42318724   -2593.1661    528.56086   -2064.6052    53.751827 
 3680000        18400   0.42454994   -2628.5766    530.26287   -2098.3137    53.286313 
 3720000        18600    0.4154538   -2642.4705     518.9018   -2123.5687    54.440569 
 3760000        18800    0.4149878   -2642.3194    518.31977   -2123.9997    54.750998 
 3800000        19000   0.41581543   -2615.5526    519.35348   -2096.1991    54.795452 
 3840000        19200   0.42947886   -2667.3139    536.41909   -2130.8948    55.370351 
 3880000        19400   0.41164199   -2617.4814    514.14084   -2103.3405    54.922373 
 3920000        19600   0.44453227   -2637.7668     555.2208    -2082.546    54.279487 
 3960000        19800   0.41400604   -2604.7886    517.09355   -2087.6951    54.064299 
 4000000        20000   0.42306442    -2637.444    528.40746   -2109.0365    55.112114 
 4040000        20200   0.43510687   -2597.0365    543.44848    -2053.588     54.23153 
 4080000        20400   0.42686876    -2641.343    533.15908   -2108.1839    54.219313 
 4120000        20600    0.4196802   -2685.1432    524.18058   -2160.9626    54.648264 
 4160000        20800   0.41386671   -2662.7055    516.91952    -2145.786    54.829508 
 4200000        21000   0.43411686   -2672.9619    542.21196   -2130.7499    54.984382 
 4240000        21200   0.43197321   -2645.9406    539.53454   -2106.4061    54.300857 
 4280000        21400   0.42921946   -2645.8875     536.0951   -2109.7924    54.019907 
 4320000        21600   0.42108631   -2678.9064    525.93681   -2152.9696    53.757364 
 4360000        21800   0.42451014   -2618.9118    530.21317   -2088.6987    52.130503 
 4400000        22000   0.41475478   -2646.9427    518.02872    -2128.914     50.84864 
 4440000        22200    0.4184069   -2615.8172    522.59022   -2093.2269    51.038797 
 4480000        22400   0.42525883   -2611.8851    531.14828   -2080.7368    49.098614 
 4520000        22600   0.42681295   -2629.0212    533.08938   -2095.9318    49.287125 
 4560000        22800   0.40926122   -2685.5606    511.16726   -2174.3934    51.850642 
 4600000        23000   0.42217834   -2659.1992    527.30074   -2131.8985    49.470964 
 4640000        23200   0.42419232   -2715.9527    529.81621   -2186.1365    51.564223 
 4680000        23400   0.43583099   -2712.1664    544.35291   -2167.8135    53.945791 
 4720000        23600   0.44102651   -2705.9649    550.84211   -2155.1227    55.454283 
 4760000        23800   0.41141441   -2688.2375     513.8566   -2174.3809    54.807458 
 4800000        24000   0.41737819   -2714.8111    521.30536   -2193.5057    54.996606 
 4840000        24200   0.41414433    -2737.402    517.26627   -2220.1357     55.14014 
 4880000        24400   0.42031847   -2720.0659    524.97777   -2195.0881    55.339867 
 4920000        24600   0.42568459   -2663.4571    531.68005    -2131.777    54.410084 
 4960000        24800   0.42931243   -2626.3258    536.21122   -2090.1145    53.962728 
 5000000        25000   0.43893766   -2622.6238    548.23314   -2074.3907    52.584484 
 5040000        25200   0.44026403    -2612.222    549.88977   -2062.3322     51.28928 
 5080000        25400    0.4308202   -2610.4545    538.09443   -2072.3601    53.359214 
 5120000        25600   0.42518016   -2562.4789    531.05001   -2031.4289    52.474688 
 5160000        25800   0.44424015   -2586.7067    554.85595   -2031.8507    52.282477 
 5200000        26000   0.43890934   -2582.0168    548.19777    -2033.819    52.363056 
 5240000        26200   0.42855729   -2591.8091    535.26805    -2056.541    53.186603 
 5280000        26400   0.41447309   -2609.1512    517.67689   -2091.4743    53.601852 
 5320000        26600   0.40781612    -2620.496    509.36233   -2111.1337    52.260315 
 5360000        26800   0.41835883   -2614.2435    522.53018   -2091.7134    52.350254 
 5400000        27000   0.40320714   -2675.5942    503.60572   -2171.9885    53.414694 
 5440000        27200    0.4020454   -2631.2029     502.1547   -2129.0482    53.746944 
 5480000        27400   0.40989009   -2629.4899    511.95273   -2117.5372    54.019344 
 5520000        27600    0.4136887   -2647.7223    516.69719   -2131.0251    54.857452 
 5560000        27800   0.40601628   -2608.5474    507.11433   -2101.4331     54.56663 
 5600000        28000   0.41087564   -2662.4512    513.18368   -2149.2675    53.747045 
 5640000        28200   0.41259632   -2664.2855     515.3328   -2148.9527      54.1596 
 5680000        28400   0.40536493   -2659.6599     506.3008   -2153.3591    54.168826 
 5720000        28600   0.41628118   -2664.2492     519.9352    -2144.314    54.975117 
 5760000        28800   0.44627943   -2666.7642      557.403   -2109.3612    55.047714 
 5800000        29000   0.41626311   -2626.3789    519.91263   -2106.4663    54.067064 
 5840000        29200    0.4125889    -2633.546    515.32353   -2118.2225    53.984257 
 5880000        29400   0.42575287   -2654.9091    531.76534   -2123.1437    55.056529 
 5920000        29600   0.41118869   -2731.6271    513.57467   -2218.0524    55.470177 
 5960000        29800   0.42263882   -2694.5747    527.87589   -2166.6988    54.736551 
 6000000        30000   0.41367073   -2680.2374    516.67474   -2163.5626    55.475302 
 6040000        30200   0.40510931   -2691.6028    505.98152   -2185.6213     55.18139 
 6080000        30400   0.42014569   -2679.3706    524.76196   -2154.6087    54.886843 
 6120000        30600   0.42358554   -2725.8265    529.05834   -2196.7682    54.972912 
 6160000        30800   0.40221318    -2705.443    502.36427   -2203.0787    54.622189 
 6200000        31000    0.4282599   -2695.8363    534.89662   -2160.9396    54.672664 
 6240000        31200   0.41609335   -2716.7889     519.7006   -2197.0883    55.697293 
 6280000        31400   0.40860296   -2649.3832     510.3451   -2139.0381    54.316742 
 6320000        31600   0.42993177   -2652.1147    536.98478   -2115.1299    53.761118 
 6360000        31800   0.41769915   -2696.8548    521.70624   -2175.1486    54.719826 
 6400000        32000   0.41222571   -2652.6385    514.86992   -2137.7686    54.194529 
 6440000        32200   0.41341377    -2616.458     516.3538   -2100.1042    53.479675 
 6480000        32400   0.43448607   -2654.2539     542.6731   -2111.5808    54.424967 
 6520000        32600   0.41663062   -2622.3002    520.37164   -2101.9286    53.672734 
 6560000        32800   0.42465903   -2626.2599    530.39913   -2095.8608    53.635246 
 6600000        33000    0.4380853   -2591.7806    547.16854    -2044.612    51.862458 
 6640000        33200   0.45976096   -2642.1243    574.24144   -2067.8829    54.782267 
 6680000        33400   0.42699403   -2665.6856    533.31554   -2132.3701    55.334759 
 6720000        33600   0.41321483   -2627.3846    516.10532   -2111.2793    54.070725 
 6760000        33800   0.41703617   -2641.8343    520.87818   -2120.9562     55.12537 
 6800000        34000   0.42010987   -2665.9537    524.71723   -2141.2365    55.245754 
 6840000        34200   0.43568443   -2640.2076    544.16986   -2096.0378    55.176325 
 6880000        34400   0.42108358   -2598.3146     525.9334   -2072.3812     53.81359 
 6920000        34600   0.42623679    -2639.074    532.36974   -2106.7043    52.763639 
 6960000        34800   0.42025661   -2595.0946    524.90051   -2070.1941     54.38423 
 7000000        35000   0.41224353   -2647.7519    514.89217   -2132.8597    55.116854 
 7040000        35200    0.4191491   -2619.8091    523.51723   -2096.2919    54.133767 
 7080000        35400   0.39531819   -2602.8116    493.75242   -2109.0592    52.561226 
 7120000        35600   0.43122736   -2679.0891    538.60298   -2140.4861    53.293636 
 7160000        35800   0.42727273   -2638.3659    533.66364   -2104.7022    52.142274 
 7200000        36000   0.41618803   -2582.7582    519.81885   -2062.9394    53.093856 
 7240000        36200   0.42375393   -2575.9837    529.26866   -2046.7151    53.407012 
 7280000        36400   0.43200804   -2596.2561    539.57804    -2056.678    52.366247 
 7320000        36600   0.43564162   -2579.8945    544.11638   -2035.7781    52.772856 
 7360000        36800   0.45340593   -2595.0319    566.30401   -2028.7279    53.820813 
 7400000        37000   0.42490745   -2628.8798    530.70941   -2098.1703     55.14927 
 7440000        37200   0.42089989   -2628.3252    525.70396   -2102.6212    54.439228 
 7480000        37400   0.42786616   -2645.3494    534.40483   -2110.9446    55.164234 
 7520000        37600   0.42929189     -2639.05    536.18557   -2102.8645    55.100998 
 7560000        37800   0.40743834   -2604.3442    508.89049   -2095.4537    54.779827 
 7600000        38000   0.43726932   -2590.8751    546.14938   -2044.7257    53.777088 
 7640000        38200   0.42419721    -2611.442    529.82232   -2081.6197    55.060384 
 7680000        38400   0.41517702   -2646.5517     518.5561   -2127.9956    54.888967 
 7720000        38600   0.43412608   -2667.2888    542.22347   -2125.0653    54.354845 
 7760000        38800   0.42142268   -2629.2499    526.35693   -2102.8929       53.969 
 7800000        39000   0.42239383   -2677.3304    527.56989   -2149.7605    54.213841 
 7840000        39200   0.41482812   -2637.1372    518.12032   -2119.0168     52.14117 
 7880000        39400   0.43360743   -2726.1216    541.57568   -2184.5459    53.578786 
 7920000        39600   0.41404797   -2690.0079    517.14592    -2172.862    53.091626 
 7960000        39800   0.42976247   -2717.6487    536.77333   -2180.8754    53.198149 
 8000000        40000   0.42048005   -2631.6364    525.17958   -2106.4568     53.66682 
 8040000        40200   0.42571346   -2692.6787    531.71612   -2160.9626    55.475771 
 8080000        40400     0.431621   -2676.9654    539.09463   -2137.8707    55.213142 
 8120000        40600   0.39710936   -2672.7894     495.9896   -2176.7998     55.04362 
 8160000        40800   0.40935285   -2651.6158     511.2817   -2140.3341     54.64807 
 8200000        41000   0.42837571   -2695.7967    535.04126   -2160.7554    55.179836 
 8240000        41200   0.40599931   -2681.8317    507.09314   -2174.7386    54.649419 
 8280000        41400   0.40331507   -2706.9674    503.74052   -2203.2269    55.078121 
 8320000        41600    0.4001098   -2700.5335    499.73713   -2200.7964    53.854935 
 8360000        41800     0.417413   -2688.9578    521.34884    -2167.609    54.134358 
 8400000        42000   0.39423197   -2686.5232    492.39573   -2194.1275    53.587836 
 8440000        42200   0.42427795   -2696.6727    529.92316   -2166.7495    54.656058 
 8480000        42400   0.41609043   -2702.2456    519.69695   -2182.5486    54.704422 
 8520000        42600   0.41688178   -2718.5131    520.68534   -2197.8278    54.637933 
 8560000        42800   0.40368405   -2703.0121    504.20138   -2198.8107    55.196766 
 8600000        43000   0.42084434   -2705.0253    525.63459   -2179.3907      55.0215 
 8640000        43200   0.43538495   -2696.2234     543.7958   -2152.4276    55.414049 
 8680000        43400   0.41408423   -2734.8229     517.1912   -2217.6317    55.328314 
 8720000        43600   0.43391044   -2702.3792    541.95414   -2160.4251    55.134116 
 8760000        43800   0.41937158    -2651.752    523.79511   -2127.9569    55.284851 
 8800000        44000   0.42941664   -2701.1884    536.34138   -2164.8471    55.167287 
 8840000        44200   0.41156361   -2670.1775    514.04295   -2156.1345    54.976221 
 8880000        44400   0.41293444   -2635.5638    515.75512   -2119.8087    54.767499 
 8920000        44600   0.39002352    -2683.348    487.13938   -2196.2086    54.601448 
 8960000        44800   0.39459779   -2668.5857    492.85264   -2175.7331    54.567941 
 9000000        45000   0.40909308    -2654.239    510.95726   -2143.2817    54.062931 
 9040000        45200   0.41343489   -2660.2387    516.38018   -2143.8585    54.485714 
 9080000        45400   0.42104299    -2699.768    525.88269   -2173.8853    55.356094 
 9120000        45600   0.42725583    -2690.121    533.64253   -2156.4785    54.844291 
 9160000        45800   0.42673351   -2671.1424    532.99016   -2138.1523    54.193106 
 9200000        46000   0.41517663     -2679.67    518.55561   -2161.1144    54.037076 
 9240000        46200   0.41714395   -2618.0288     521.0128    -2097.016    53.410149 
 9280000        46400   0.43317125   -2562.3486    541.03089   -2021.3177    51.412685 
 9320000        46600   0.42755429   -2570.3532    534.01531   -2036.3379    51.294297 
 9360000        46800   0.42270688   -2623.4149     527.9609    -2095.454     50.95941 
 9400000        47000   0.40589017   -2622.1008    506.95683    -2115.144    52.301784 
 9440000        47200   0.41833602   -2667.9399    522.50169   -2145.4382     52.56561 
 9480000        47400   0.41766381   -2672.0677     521.6621   -2150.4055    51.516877 
 9520000        47600   0.41979726   -2654.3399    524.32678   -2130.0131    51.291725 
 9560000        47800    0.4214259   -2653.8618    526.36095   -2127.5009     49.97956 
 9600000        48000   0.43653996    -2646.952     545.2384   -2101.7136    50.583933 
 9640000        48200   0.41188178   -2649.5259    514.44035   -2135.0855    45.006762 
 9680000        48400   0.41910957    -2662.717    523.46785   -2139.2491    44.937326 
 9720000        48600   0.42500052   -2614.7375    530.82565   -2083.9118    40.992024 
 9760000        48800   0.43251945   -2640.9291    540.21679   -2100.7123    26.844604 
 9800000        49000   0.43244795   -2652.0464    540.12749   -2111.9189    25.914876 
 9840000        49200    0.4187403   -2597.1127    523.00664   -2074.1061    26.148618 
 9880000        49400   0.43091267   -2608.6098    538.20993   -2070.3999    23.315701 
 9920000        49600   0.43629434   -2620.2673    544.93163   -2075.3357    23.229668 
 9960000        49800    0.4264924   -2679.7224    532.68901   -2147.0334    22.185356 
10000000        50000   0.42897603    -2629.231    535.79106   -2093.4399    22.979142 
10040000        50200   0.42650197   -2592.6322    532.70096   -2059.9313    23.730754 
10080000        50400   0.45410832    -2633.191    567.18129   -2066.0097    22.622271 
10120000        50600    0.4366614   -2601.8942    545.39009   -2056.5041    23.239749 
10160000        50800   0.43325743   -2616.9393    541.13853   -2075.8008      23.1759 
10200000        51000   0.43422451   -2563.9438    542.34642   -2021.5974    23.737514 
10240000        51200   0.43127972   -2544.5439    538.66837   -2005.8755    23.183232 
10280000        51400   0.43634736   -2547.0896    544.99786   -2002.0917    23.210549 
10320000        51600    0.4258182   -2572.2694    531.84693   -2040.4225    23.340856 
10360000        51800   0.43219951   -2579.4099    539.81718   -2039.5927    23.357819 
10400000        52000    0.4194053   -2638.6325    523.83722   -2114.7953    22.910946 
10440000        52200   0.42577677    -2575.849    531.79518   -2044.0538    23.722088 
10480000        52400   0.45168501    -2571.251    564.15458   -2007.0964    23.049489 
10520000        52600   0.42204493   -2545.5708    527.13411   -2018.4367    23.818055 
10560000        52800   0.44679899   -2592.7894    558.05193   -2034.7375    23.196717 
10600000        53000   0.44869594   -2534.9466    560.42123   -1974.5254    23.629653 
10640000        53200   0.41542068   -2551.1532    518.86043   -2032.2928      23.6052 
10680000        53400   0.44827202     -2572.03    559.89175   -2012.1383    23.370695 
10720000        53600   0.44033954   -2496.3579    549.98408   -1946.3738     23.70612 
10760000        53800   0.42684369   -2524.2579    533.12777   -1991.1301    24.121315 
10800000        54000   0.43453818    -2520.072    542.73819   -1977.3338    24.322281 
10840000        54200    0.4511307   -2535.8125    563.46225   -1972.3502    23.771051 
10880000        54400   0.45077828   -2528.6714    563.02207   -1965.6493    24.824184 
10920000        54600   0.43217414    -2524.585     539.7855   -1984.7995    24.649408 
10960000        54800   0.42196453   -2510.7929    527.03369   -1983.7592    23.769399 
11000000        55000   0.43178946   -2537.2789    539.30504   -1997.9739    23.688853 
11040000        55200   0.44449518   -2513.6124    555.17449   -1958.4379    23.478975 
11080000        55400   0.44430518    -2530.253    554.93717   -1975.3158     23.43801 
11120000        55600   0.43087551   -2459.9768    538.16352   -1921.8133    24.176582 
11160000        55800   0.42618803   -2460.1612    532.30886   -1927.8523    23.875814 
11200000        56000   0.44758141   -2538.8159    559.02919   -1979.7867    23.492894 
11240000        56200   0.43152791   -2596.2056    538.97836   -2057.2272    22.914806 
11280000        56400   0.45252587   -2585.2144    565.20482   -2020.0096    24.465917 
11320000        56600   0.43241928   -2589.9119    540.09168   -2049.8202    23.388667 
11360000        56800   0.45423533    -2523.201    567.33993    -1955.861    23.825188 
11400000        57000   0.43814513   -2533.2664    547.24326   -1986.0231    23.796982 
11440000        57200   0.42277144   -2553.6113    528.04153   -2025.5698    23.051521 
11480000        57400   0.44405165   -2578.4595    554.62051   -2023.8389    22.828729 
11520000        57600   0.43078019   -2547.7205    538.04446   -2009.6761    23.461879 
11560000        57800     0.419237   -2529.4011    523.62701    -2005.774     23.29603 
11600000        58000   0.42577094   -2551.0449     531.7879    -2019.257    22.649356 
11640000        58200   0.44332212   -2536.0164    553.70933    -1982.307    23.518437 
11680000        58400   0.46208005    -2533.003    577.13798    -1955.865    24.069718 
11720000        58600   0.42174377   -2562.5116    526.75797   -2035.7536    23.573939 
11760000        58800   0.45223993    -2596.906    564.84767   -2032.0583    22.977349 
11800000        59000   0.41561487    -2561.154    519.10297    -2042.051    23.545674 
11840000        59200   0.40873151   -2605.6948    510.50565   -2095.1892    23.278944 
11880000        59400   0.43655246   -2583.3028    545.25402   -2038.0488    23.004376 
11920000        59600   0.43379353   -2578.6856    541.80812   -2036.8774    23.555715 
11960000        59800   0.42424204   -2568.1957    529.87831   -2038.3173    23.227823 
12000000        60000     0.458679   -2592.2106    572.89007   -2019.3205     23.11987 
12040000        60200   0.44637638   -2529.9727     557.5241   -1972.4486     24.25843 
12080000        60400   0.46667162   -2564.4974    582.87285   -1981.6245    24.126243 
12120000        60600   0.43059401   -2577.0728    537.81191   -2039.2609    23.607648 
12160000        60800   0.41523692   -2598.8514    518.63091   -2080.2205    23.857192 
12200000        61000   0.43330852   -2541.3629    541.20234   -2000.1605    25.489827 
12240000        61200    0.4388228    -2528.058    548.08967   -1979.9683    24.334959 
12280000        61400   0.43757324   -2539.2521    546.52898   -1992.7231    24.638663 
12320000        61600   0.43324726   -2549.8041    541.12582   -2008.6783    24.253175 
12360000        61800   0.44783486   -2530.8892    559.34575   -1971.5434    25.863692 
12400000        62000    0.4592729   -2538.7567    573.63185   -1965.1249    26.059976 
12440000        62200   0.43836186   -2507.8517    547.51397   -1960.3378    24.346414 
12480000        62400   0.42518272   -2510.4812    531.05322    -1979.428    23.913477 
12520000        62600   0.47071652   -2474.4844    587.92494   -1886.5594    23.838937 
12560000        62800   0.43146742   -2418.5211     538.9028   -1879.6183    24.752915 
12600000        63000   0.43746008   -2498.7023    546.38764   -1952.3147    23.933126 
12640000        63200   0.41316533   -2526.2481     516.0435   -2010.2046    24.292054 
12680000        63400   0.43147394   -2522.1247    538.91095   -1983.2138    24.323709 
12720000        63600   0.42399591   -2466.6739    529.57089   -1937.1031     24.10616 
12760000        63800   0.45657259   -2513.8475    570.25917   -1943.5884    23.933864 
12800000        64000   0.45314191   -2550.2866    565.97425   -1984.3123    23.877092 
12840000        64200     0.450025   -2555.3473    562.08122   -1993.2661    23.471752 
12880000        64400   0.44323789   -2509.9782    553.60413    -1956.374    24.955274 
12920000        64600   0.43050252   -2587.4046    537.69765    -2049.707    23.021926 
12960000        64800    0.4142384   -2611.2708    517.38376    -2093.887    22.752053 
13000000        65000   0.42397267   -2562.7452    529.54187   -2033.2033    23.588014 
13040000        65200   0.43863122   -2584.0222     547.8504   -2036.1718     23.33284 
13080000        65400   0.45078193   -2585.9992    563.02663   -2022.9726    22.925752 
13120000        65600   0.42754073   -2519.3347    533.99837   -1985.3363    23.395775 
13160000        65800   0.43472927   -2542.8221    542.97685   -1999.8452    23.935804 
13200000        66000   0.42721917   -2541.1489    533.59675   -2007.5522    23.131227 
13240000        66200   0.43107441   -2536.0942    538.41193   -1997.6823    24.387011 
13280000        66400   0.44619851   -2568.2174    557.30194   -2010.9155     23.65162 
13320000        66600   0.45446831   -2517.3619    567.63092   -1949.7309    23.703022 
13360000        66800   0.43627275    -2476.792    544.90467   -1931.8873    24.227146 
13400000        67000   0.46093322   -2533.6279    575.70559   -1957.9223    23.251631 
13440000        67200   0.46401038   -2533.5833    579.54896   -1954.0343    23.731646 
13480000        67400    0.4437748   -2510.0427    554.27472    -1955.768    24.335028 
13520000        67600   0.44422994   -2533.6788     554.8432   -1978.8356     24.50633 
13560000        67800    0.4551705   -2527.6273    568.50795   -1959.1194    23.646222 
13600000        68000   0.45172566   -2514.2075    564.20535   -1950.0022    23.694509 
13640000        68200   0.44328595   -2479.8603    553.66415   -1926.1961     24.60583 
13680000        68400   0.43450278   -2511.5275    542.69397   -1968.8335      24.3704 
13720000        68600   0.44541037   -2571.3881    556.31755   -2015.0705    23.473821 
13760000        68800   0.42856976   -2515.1197    535.28363    -1979.836    23.574029 
13800000        69000   0.44805967   -2602.2879    559.62652   -2042.6614     23.70006 
13840000        69200   0.42988932    -2559.122    536.93176   -2022.1903    23.699609 
13880000        69400   0.42538545   -2534.5526    531.30643   -2003.2462    23.656611 
13920000        69600   0.41912182   -2525.4737    523.48315   -2001.9906    23.359178 
13960000        69800   0.45221555    -2473.234    564.81722   -1908.4168    24.572231 
14000000        70000   0.42986792   -2554.0145    536.90504   -2017.1094    23.677028 
14040000        70200   0.44071415   -2463.4586    550.45197   -1913.0067    24.555745 
14080000        70400   0.43374587   -2548.1246    541.74859    -2006.376    23.135322 
14120000        70600   0.42390296   -2582.6755     529.4548   -2053.2207    23.520513 
14160000        70800    0.4244324   -2543.7602    530.11607   -2013.6442    24.459303 
14200000        71000   0.43877588   -2552.7461    548.03107    -2004.715    24.063788 
14240000        71200   0.42258503   -2582.1911     527.8087   -2054.3824    23.880082 
14280000        71400   0.44481584   -2509.2963    555.57498   -1953.7213    24.296121 
14320000        71600   0.44291438    -2525.977    553.20006   -1972.7769    24.919453 
14360000        71800   0.41876788   -2499.0222    523.04108   -1975.9811    25.114975 
14400000        72000   0.46451331   -2525.2103    580.17712   -1945.0332    25.465834 
14440000        72200   0.43253759   -2499.2507    540.23946   -1959.0113    25.789539 
14480000        72400   0.44183564   -2482.9871    551.85271   -1931.1344    24.776053 
14520000        72600   0.46355491   -2557.5833    578.98008   -1978.6033     23.88743 
14560000        72800   0.43829189   -2495.7893    547.42658   -1948.3628    24.889581 
14600000        73000   0.44081955   -2567.7066    550.58362   -2017.1229    24.058636 
14640000        73200   0.43095032   -2593.2422    538.25695   -2054.9853    24.527003 
14680000        73400   0.43963992   -2615.7346    549.11026   -2066.6243     25.20796 
14720000        73600   0.42669257   -2588.6627    532.93902   -2055.7237    25.843052 
14760000        73800   0.44171998   -2521.4384    551.70826   -1969.7301     26.13361 
14800000        74000   0.45282658   -2556.4737     565.5804   -1990.8933    26.398949 
14840000        74200   0.43789142   -2514.8664    546.92638     -1967.94    25.504722 
14880000        74400   0.43733794   -2516.6002    546.23509   -1970.3651     26.62485 
14920000        74600    0.4404056   -2565.1774     550.0666   -2015.1108    26.337114 
14960000        74800   0.42561051   -2570.0826    531.58752   -2038.4951    25.630376 
15000000        75000   0.43129689   -2519.6217    538.68981   -1980.9319     26.20613 
15040000        75200   0.43870351    -2532.902    547.94068   -1984.9613    25.913763 
15080000        75400   0.44492402   -2535.5814     555.7101   -1979.8713    26.710167 
15120000        75600   0.43823853   -2458.9837    547.35993   -1911.6238    26.357284 
15160000        75800   0.43324793   -2480.4731    541.12666   -1939.3464    26.081059 
15200000        76000   0.42391749   -2482.5102    529.47294   -1953.0372    26.999133 
15240000        76200   0.43458582   -2503.3168    542.79769   -1960.5191    26.267607 
15280000        76400   0.45207837   -2568.8001    564.64588   -2004.1543    26.591559 
15320000        76600   0.44058383   -2524.5946     550.2892   -1974.3054    26.788674 
15360000        76800   0.45067139   -2549.2461    562.88856   -1986.3575    28.003421 
15400000        77000   0.43017313   -2522.0392    537.28624    -1984.753    27.662428 
15440000        77200   0.44740575   -2557.9579    558.80978   -1999.1481    26.523291 
15480000        77400   0.43435174   -2612.7244    542.50532    -2070.219    26.816656 
15520000        77600   0.42666605   -2559.4948     532.9059   -2026.5889     26.97947 
15560000        77800   0.44154689     -2515.36    551.49207    -1963.868    27.381876 
15600000        78000   0.42495808   -2535.1306    530.77264   -2004.3579    26.622909 
15640000        78200   0.43888981   -2521.8216    548.17337   -1973.6483    27.153602 
15680000        78400   0.41739947   -2520.0062    521.33194   -1998.6743     28.46384 
15720000        78600   0.43314734   -2557.7745    541.00103   -2016.7735     27.47987 
15760000        78800   0.44337697   -2538.6871    553.77783   -1984.9093    27.660231 
15800000        79000   0.42373153   -2481.3791    529.24068   -1952.1384    28.040584 
15840000        79200   0.42993047   -2478.2268    536.98316   -1941.2437     27.76072 
15880000        79400   0.43419385   -2529.1122    542.30812   -1986.8041    28.167487 
15920000        79600    0.4273467   -2490.2363    533.75603   -1956.4803    28.384292 
15960000        79800   0.43534147    -2459.768     543.7415   -1916.0265    28.885061 
16000000        80000   0.44224123   -2509.1875    552.35929   -1956.8282    28.102474 
16040000        80200   0.44522466   -2522.7846     556.0856    -1966.699    28.046117 
16080000        80400   0.43624463   -2546.6252    544.86955   -2001.7557    27.796994 
16120000        80600   0.42559283   -2515.5879    531.56544   -1984.0225     28.50226 
16160000        80800   0.43135073    -2552.399    538.75707   -2013.6419    27.920273 
16200000        81000   0.41365413   -2470.1694    516.65401   -1953.5154    29.344259 
16240000        81200   0.43453018   -2496.7612    542.72819    -1954.033    29.322426 
16280000        81400   0.44556317   -2518.1891     556.5084   -1961.6807    29.425113 
16320000        81600   0.42827081   -2543.7793    534.91024   -2008.8691    29.689806 
16360000        81800   0.43358356   -2523.3044    541.54586   -1981.7585    29.778419 
16400000        82000   0.44851744   -2471.5265    560.19828   -1911.3282     29.83983 
16440000        82200   0.43249206   -2464.6059    540.18259   -1924.4233    32.208797 
16480000        82400   0.43762176   -2516.6928    546.58958   -1970.1033    31.348014 
16520000        82600   0.43281493   -2571.4818    540.58585    -2030.896    29.489923 
16560000        82800   0.44098143   -2521.8256     550.7858   -1971.0398    29.366564 
16600000        83000   0.42825332   -2488.2377     534.8884   -1953.3493    30.328514 
16640000        83200    0.4311719   -2514.3372     538.5337   -1975.8035    30.905304 
16680000        83400     0.441944   -2519.8238    551.98806   -1967.8357    31.724212 
16720000        83600   0.44793972    -2544.529    559.47671   -1985.0523    31.417699 
16760000        83800   0.44158186   -2534.7163    551.53574   -1983.1805    31.672136 
16800000        84000      0.44184   -2592.7948    551.85816   -2040.9366    31.561247 
16840000        84200    0.4305572   -2477.2053    537.76594   -1939.4393    32.226926 
16880000        84400   0.44388156   -2448.7835    554.40807   -1894.3754    33.035224 
16920000        84600   0.42662403   -2525.8209    532.85342   -1992.9674    33.571828 
16960000        84800   0.40477683   -2530.8169    505.56626   -2025.2506    33.372308 
17000000        85000   0.42266195   -2522.3295    527.90478   -1994.4247    35.015675 
17040000        85200   0.43264969    -2549.133    540.37947   -2008.7535    34.550169 
17080000        85400   0.42274081   -2543.4685    528.00327   -2015.4653    34.669895 
17120000        85600   0.40874235   -2617.0269    510.51919   -2106.5077    34.766001 
17160000        85800    0.4396639    -2580.487    549.14021   -2031.3468    35.123901 
17200000        86000   0.43425089    -2555.927    542.37937   -2013.5476    35.761998 
17240000        86200   0.44995756   -2493.0756    561.99699   -1931.0786    36.182875 
17280000        86400   0.43476644   -2574.4492    543.02328   -2031.4259    36.367616 
17320000        86600   0.43780286   -2524.5221    546.81577   -1977.7064    36.978353 
17360000        86800   0.42397628   -2499.9394    529.54637   -1970.3931    36.381756 
17400000        87000   0.43663984    -2460.238    545.36316   -1914.8748    36.361086 
17440000        87200   0.43226987   -2545.3699    539.90507   -2005.4649    36.416177 
17480000        87400   0.42394361   -2552.7501    529.50557   -2023.2445    36.585498 
17520000        87600    0.4462343   -2573.2273    557.34665   -2015.8807    37.267346 
17560000        87800   0.43501142   -2562.1514    543.32926   -2018.8221     37.49834 
17600000        88000   0.42274817   -2605.0384    528.01246    -2077.026    38.503517 
17640000        88200   0.41988275   -2568.2338    524.43356   -2043.8002    38.147649 
17680000        88400   0.45672742   -2527.3232    570.45254   -1956.8707    37.281304 
17720000        88600   0.42246867   -2531.3122    527.66337   -2003.6488    37.551847 
17760000        88800    0.4329237   -2517.1107     540.7217    -1976.389    38.611508 
17800000        89000   0.42669767   -2516.4442    532.94539   -1983.4988    38.661194 
17840000        89200   0.43889201   -2532.3976    548.17612   -1984.2215    39.200259 
17880000        89400   0.41063801   -2515.1027    512.88688   -2002.2158    40.109006 
17920000        89600   0.41263594   -2520.2943    515.38229    -2004.912    40.519743 
17960000        89800   0.45603768   -2575.2684    569.59106   -2005.6774    40.067046 
18000000        90000   0.41098226   -2528.0413    513.31684   -2014.7244    40.676191 
18040000        90200   0.41159459   -2522.1454    514.08164   -2008.0638    40.349627 
18080000        90400    0.4165231   -2552.7532    520.23735   -2032.5158    40.746221 
18120000        90600   0.40744314   -2539.0729    508.89649   -2030.1764    40.526882 
18160000        90800   0.41011252   -2514.2768    512.23054   -2002.0463    40.916696 
18200000        91000   0.43314786   -2572.6567    541.00167    -2031.655     40.32882 
18240000        91200   0.43491917    -2578.681    543.21405    -2035.467    41.120367 
18280000        91400   0.42972008   -2533.0927    536.72038   -1996.3723    41.150861 
18320000        91600   0.41686019   -2530.6915    520.65838   -2010.0331    41.121926 
18360000        91800   0.41289104   -2526.1277    515.70091   -2010.4268    42.006924 
18400000        92000   0.42791262   -2545.8722    534.46286   -2011.4094    41.977839 
18440000        92200    0.4302979   -2522.6288    537.44208   -1985.1867    42.439454 
18480000        92400   0.44856196   -2510.3662    560.25389   -1950.1123    42.997613 
18520000        92600   0.43968567   -2601.3798    549.16741   -2052.2124    42.859787 
18560000        92800   0.42771243   -2588.4802    534.21282   -2054.2673    43.047267 
18600000        93000   0.45094296   -2540.9479    563.22775   -1977.7201    42.673064 
18640000        93200   0.44519203   -2485.8151    556.04485   -1929.7702    42.843454 
18680000        93400   0.42223659   -2512.3389    527.37351   -1984.9654    42.900407 
18720000        93600    0.4008689   -2569.3636    500.68525   -2068.6783    43.852153 
18760000        93800   0.40690937   -2540.7281    508.22981   -2032.4983    43.066668 
18800000        94000   0.41939488   -2485.2493     523.8242   -1961.4251     42.18997 
18840000        94200    0.4469881    -2526.277    558.28813   -1967.9888    42.448478 
18880000        94400   0.42917072   -2443.8384    536.03423   -1907.8041    42.223933 
18920000        94600    0.4205476   -2552.5489    525.26396   -2027.2849     42.70945 
18960000        94800   0.42728825   -2538.1864    533.68303   -2004.5034    42.715303 
19000000        95000   0.42073733   -2596.6203    525.50093   -2071.1194      44.2603 
19040000        95200   0.42805216   -2571.8327    534.63714   -2037.1955    44.220416 
19080000        95400    0.4337471   -2517.6785    541.75012   -1975.9283    43.241538 
19120000        95600   0.41491746   -2488.7143    518.23191   -1970.4824    43.984915 
19160000        95800    0.4221856   -2541.5742    527.30981   -2014.2644    43.492624 
19200000        96000   0.42245945    -2565.362    527.65185   -2037.7101    43.034251 
19240000        96200   0.40124262   -2534.9354    501.15204   -2033.7833    44.099334 
19280000        96400   0.42355346   -2545.6631    529.01828   -2016.6448    45.211481 
19320000        96600   0.44565583   -2535.2499    556.62413   -1978.6257    45.666488 
19360000        96800   0.43988943   -2540.1743     549.4219   -1990.7524    45.745454 
19400000        97000   0.41427464   -2562.6314    517.42902   -2045.2023    45.348802 
19440000        97200    0.4356825   -2474.3069    544.16744   -1930.1395    45.415565 
19480000        97400   0.43519957   -2530.0771    543.56427   -1986.5128    46.302255 
19520000        97600   0.42214885   -2513.1749    527.26392    -1985.911    46.037976 
19560000        97800   0.42817538   -2570.0472    534.79105   -2035.2561     46.68378 
19600000        98000   0.43870898   -2551.6317    547.94752   -2003.6842    47.230255 
19640000        98200   0.44146867   -2542.6459    551.39437   -1991.2515    48.127348 
19680000        98400   0.42967016   -2561.2832    536.65804   -2024.6251    47.709586 
19720000        98600   0.44108172   -2577.9908    550.91107   -2027.0797    47.769087 
19760000        98800    0.4117582   -2604.8632      514.286   -2090.5772    47.707987 
19800000        99000    0.4522803   -2529.2957     564.8981   -1964.3976    47.679183 
19840000        99200   0.43057203   -2506.6522    537.78446   -1968.8677     47.68692 
19880000        99400   0.42639402   -2571.3233    532.56613   -2038.7571    48.408913 
19920000        99600   0.43414436   -2597.2405    542.24631   -2054.9942    48.185191 
19960000        99800    0.4263751   -2472.5539     532.5425   -1940.0114    49.039571 
20000000       100000   0.41715639   -2490.6397    521.02833   -1969.6114    48.112358 
20040000       100200   0.42946189    -2561.587     536.3979   -2025.1891    48.619526 
20080000       100400   0.41867751   -2518.0835     522.9282   -1995.1553    49.466141 
20120000       100600   0.42651645   -2560.4462    532.71905   -2027.7272    48.624032 
20160000       100800    0.4116542   -2484.8462    514.15609   -1970.6901    49.981364 
20200000       101000   0.41550486   -2541.4091    518.96557   -2022.4436    48.494607 
20240000       101200    0.4346576    -2617.213    542.88734   -2074.3257    48.738608 
20280000       101400   0.44205643   -2551.7309    552.12848   -1999.6024     49.32114 
20320000       101600   0.41224745   -2526.1963    514.89707   -2011.2992    49.054409 
20360000       101800   0.41395587   -2543.7786    517.03088   -2026.7477    49.299356 
20400000       102000   0.41638041   -2520.0575    520.05914   -1999.9984    49.688734 
20440000       102200   0.42108748   -2588.8441    525.93826   -2062.9059    49.088159 
20480000       102400   0.41993609   -2523.9225    524.50017   -1999.4223    48.711335 
20520000       102600   0.42045779   -2525.9226    525.15178   -2000.7708    49.266916 
20560000       102800   0.41626195   -2560.3534    519.91118   -2040.4423    50.092789 
20600000       103000   0.44082666   -2547.3195    550.59249    -1996.727    50.512932 
20640000       103200   0.40832269   -2550.5458    509.99504   -2040.5507    51.134412 
20680000       103400   0.43638686   -2577.8764    545.04719   -2032.8292    50.706267 
20720000       103600    0.4460611   -2575.4227    557.13031   -2018.2924    51.576642 
20760000       103800   0.43800095   -2650.3173    547.06318   -2103.2542    51.865728 
20800000       104000   0.41889581   -2536.9957    523.20087   -2013.7949    51.610601 
20840000       104200    0.4199387   -2565.9999    524.50344   -2041.4965    52.662453 
20880000       104400   0.42066242   -2478.0274    525.40737     -1952.62    52.394435 
20920000       104600    0.4294773   -2589.3308    536.41715   -2052.9137    53.295445 
20960000       104800   0.42691425   -2552.6773    533.21589   -2019.4614    53.450001 
21000000       105000   0.44269205   -2602.3947    552.92237   -2049.4723    54.005913 
21040000       105200   0.42974609    -2591.485    536.75287   -2054.7321    54.702262 
21080000       105400   0.41245355   -2573.6164    515.15449   -2058.4619      53.8934 
21120000       105600   0.41464498   -2608.7346    517.89158    -2090.843    54.841517 
21160000       105800   0.40767312   -2574.1063    509.18373   -2064.9226    54.378487 
21200000       106000   0.43266637   -2643.8671    540.40029   -2103.4668    55.163161 
21240000       106200   0.41111755   -2623.1551    513.48582   -2109.6692    55.020131 
21280000       106400   0.42331825   -2592.1284     528.7245   -2063.4039    54.151405 
21320000       106600   0.42684976   -2626.8629    533.13536   -2093.7275    54.562981 
21360000       106800   0.43148585   -2587.3431    538.92583   -2048.4173    53.084866 
21400000       107000   0.42073474   -2619.6701    525.49768   -2094.1724    53.766266 
21440000       107200    0.4221675   -2639.0554    527.28721   -2111.7682    54.685122 
21480000       107400    0.4129564   -2572.0985    515.78254    -2056.316    54.474644 
21520000       107600   0.42032643   -2598.0514    524.98771   -2073.0637    54.563882 
21560000       107800   0.43817384   -2636.3298    547.27912   -2089.0507    54.450799 
21600000       108000   0.39868655    -2622.364    497.95951   -2124.4045    54.857744 
21640000       108200   0.44856698   -2671.3929    560.26016   -2111.1327    54.774646 
21680000       108400   0.43428964   -2660.9322    542.42776   -2118.5044    54.657517 
21720000       108600   0.43273913   -2658.9669    540.49117   -2118.4757    54.680639 
21760000       108800   0.42023851   -2663.4786     524.8779   -2138.6007    53.563721 
21800000       109000   0.42017721   -2616.1747    524.80134   -2091.3733    53.749678 
21840000       109200   0.43669967   -2583.4807    545.43788   -2038.0428    53.636061 
21880000       109400   0.43916832     -2629.37    548.52124   -2080.8488    55.036457 
21920000       109600    0.4039311   -2604.7416    504.50994   -2100.2317    54.843835 
21960000       109800   0.40483168   -2708.0285    505.63477   -2202.3938    55.343573 
22000000       110000     0.433392   -2593.2017    541.30661   -2051.8951    53.730132 
22040000       110200   0.40777687   -2633.2591    509.31331   -2123.9458    54.954753 
22080000       110400   0.42199977   -2630.0242    527.07771   -2102.9465    54.765783 
22120000       110600   0.40127835   -2594.8247    501.19666    -2093.628    53.864162 
22160000       110800   0.42018671   -2645.5793    524.81321   -2120.7661    54.866594 
22200000       111000   0.41726282   -2598.8938    521.16126   -2077.7325    54.359507 
22240000       111200   0.43057235   -2588.1353    537.78487   -2050.3505    53.487497 
22280000       111400   0.43364431   -2653.4222    541.62174   -2111.8004    54.710748 
22320000       111600   0.45313336   -2692.8864    565.96356   -2126.9229    55.449921 
22360000       111800   0.46082314   -2643.3391    575.56811    -2067.771    54.652424 
22400000       112000   0.41621908   -2600.9595    519.85763   -2081.1019     54.32944 
22440000       112200   0.41928442   -2653.5206    523.68624   -2129.8344     54.55023 
22480000       112400   0.41313647   -2654.8902    516.00745   -2138.8827    55.117108 
22520000       112600   0.41145305   -2651.8177    513.90486   -2137.9129    54.684712 
22560000       112800   0.43778933   -2615.8956    546.79888   -2069.0968    54.649921 
22600000       113000   0.42898093   -2646.8193    535.79718   -2111.0222    55.323317 
22640000       113200    0.4127223   -2650.5707    515.49015   -2135.0806    54.823088 
22680000       113400   0.41848936    -2697.737    522.69321   -2175.0438    55.501394 
22720000       113600   0.39716458   -2677.5122    496.05856   -2181.4536    54.243952 
22760000       113800   0.40690279   -2660.8432    508.22159   -2152.6216    54.690232 
22800000       114000   0.41750316   -2722.5887    521.46144   -2201.1273    55.284951 
22840000       114200   0.41921201   -2653.3563     523.5958   -2129.7605    54.820861 
22880000       114400   0.41743638   -2635.3573    521.37803   -2113.9793    54.392009 
22920000       114600   0.42578996   -2619.9239    531.81166   -2088.1122    55.025806 
22960000       114800   0.42920029   -2599.2559    536.07116   -2063.1847    54.381335 
23000000       115000   0.43438292   -2650.7754    542.54427   -2108.2312    54.540007 
23040000       115200   0.42809292   -2638.7415    534.68805   -2104.0534    54.860868 
23080000       115400   0.42385768   -2620.3328    529.39824   -2090.9346    53.761489 
23120000       115600   0.43990221   -2644.3862    549.43786   -2094.9484    55.075795 
23160000       115800   0.41280881   -2605.6159    515.59821   -2090.0177    54.219421 
23200000       116000   0.42984575   -2685.8297    536.87734   -2148.9523    55.058822 
23240000       116200    0.4050123   -2630.7518    505.86037   -2124.8914    54.449664 
23280000       116400   0.43091106   -2659.2431    538.20792   -2121.0352    54.688058 
23320000       116600    0.4170102   -2640.6188    520.84574   -2119.7731    54.111124 
23360000       116800   0.40856019    -2634.545    510.29167   -2124.2534    54.640597 
23400000       117000   0.41451059   -2619.4771    517.72372   -2101.7534    53.783426 
23440000       117200   0.42681776   -2623.2478    533.09538   -2090.1524    54.708898 
23480000       117400   0.41878086   -2627.0924    523.05729   -2104.0351    54.945011 
23520000       117600   0.45728145   -2617.4488    571.14453   -2046.3043    54.369309 
23560000       117800    0.4231639   -2582.0893     528.5317   -2053.5576    53.964456 
23600000       118000   0.41012885    -2636.087    512.25093   -2123.8361    54.289418 
23640000       118200   0.41953432   -2657.9867    523.99837   -2133.9883    54.636025 
23680000       118400   0.42170254   -2640.5454    526.70647   -2113.8389     54.82411 
23720000       118600    0.4163267   -2656.0497    519.99205   -2136.0576    55.274851 
23760000       118800   0.43011818   -2653.3121    537.21761   -2116.0945    54.577761 
23800000       119000    0.4328817   -2699.3355    540.66924   -2158.6663    55.330295 
23840000       119200   0.42832272     -2600.65    534.97508   -2065.6749    53.244459 
23880000       119400   0.41018584   -2643.5517    512.32211   -2131.2296    54.366118 
23920000       119600   0.42103306    -2656.482    525.87029   -2130.6117    55.516083 
23960000       119800   0.42103827   -2674.8322     525.8768   -2148.9554    54.706911 
24000000       120000   0.41492965   -2695.0104    518.24714   -2176.7633    55.302117 
24040000       120200   0.43346395    -2735.748    541.39648   -2194.3515    55.564196 
24080000       120400   0.40851315     -2697.89    510.23292    -2187.657    55.318213 
24120000       120600   0.42409993   -2713.1874    529.70081   -2183.4866    55.428089 
24160000       120800   0.43027306   -2700.0916    537.41105   -2162.6806    54.770836 
24200000       121000   0.42206388   -2676.6968    527.15778   -2149.5391    54.658889 
24240000       121200   0.43477269   -2693.0862    543.03109   -2150.0551    54.042787 
24280000       121400   0.42550104   -2708.8822     531.4508   -2177.4314    55.071956 
24320000       121600   0.41429763   -2676.5484    517.45774   -2159.0907    54.649671 
24360000       121800   0.43703912   -2722.1422    545.86186   -2176.2803    55.641589 
24400000       122000   0.42416278    -2677.251    529.77931   -2147.4717    53.981867 
24440000       122200   0.41103639   -2697.7772    513.38446   -2184.3928    55.270253 
24480000       122400   0.42148391   -2663.8299     526.4334   -2137.3965    55.565001 
24520000       122600   0.40802765   -2656.2764    509.62653   -2146.6499    55.006196 
24560000       122800   0.44409709   -2662.0429    554.67726   -2107.3656    54.912675 
24600000       123000   0.42587146   -2686.3976    531.91346   -2154.4842     54.40058 
24640000       123200   0.42305134   -2654.6281    528.39113    -2126.237    53.726247 
24680000       123400   0.41130905   -2674.1044    513.72501   -2160.3793     52.42762 
24720000       123600   0.43734898   -2626.8807    546.24888   -2080.6319    50.734788 
24760000       123800   0.40451952   -2605.1987    505.24489   -2099.9538    51.497309 
24800000       124000   0.43257396   -2640.1337    540.28488   -2099.8488    53.835544 
24840000       124200   0.44702281   -2676.7779    558.33149   -2118.4464    53.994818 
24880000       124400   0.39921571   -2634.8173    498.62042   -2136.1969    52.992853 
24920000       124600    0.4090912   -2668.8803    510.95491   -2157.9254    54.464138 
24960000       124800   0.41960587   -2597.3588    524.08774    -2073.271     54.09569 
25000000       125000   0.42690049   -2665.4125    533.19871   -2132.2138    54.874485 
25040000       125200   0.40782695    -2601.351    509.37586   -2091.9752    53.703677 
25080000       125400   0.42545201   -2661.7695    531.38957     -2130.38    54.560523 
25120000       125600   0.40944728   -2607.7449    511.39966   -2096.3452     54.59492 
25160000       125800   0.39713784   -2625.5691    496.02517   -2129.5439     54.65017 
25200000       126000   0.42600406   -2589.6163    532.07907   -2057.5372    54.311502 
25240000       126200   0.39539772   -2616.7126    493.85176   -2122.8609    54.459269 
25280000       126400   0.40658165   -2632.3154    507.82047   -2124.4949    54.744744 
25320000       126600   0.42516375   -2674.0204    531.02952   -2142.9909    54.904086 
25360000       126800   0.41702182   -2677.0887    520.86026   -2156.2285     55.19883 
25400000       127000   0.42349797   -2648.0649    528.94897   -2119.1159     54.97672 
25440000       127200   0.41834058   -2637.4081    522.50738   -2114.9007    55.378804 
25480000       127400   0.41967208   -2645.2697    524.17043   -2121.0993    54.768513 
25520000       127600   0.43442197    -2655.362    542.59304   -2112.7689    54.689803 
25560000       127800   0.42940469   -2628.0069    536.32646   -2091.6805    54.720144 
25600000       128000   0.41597562   -2664.5855    519.55355    -2145.032    54.775378 
25640000       128200   0.42642383   -2663.9749    532.60336   -2131.3715    54.807571 
25680000       128400   0.40873592   -2665.8811    510.51116   -2155.3699    54.006045 
25720000       128600   0.42631385   -2676.2356    532.46599   -2143.7696    53.873325 
25760000       128800    0.4393435   -2625.1969    548.74003   -2076.4569    51.985912 
25800000       129000   0.41151469   -2594.5662    513.98185   -2080.5843    50.530557 
25840000       129200   0.41111638   -2631.8883    513.48436   -2118.4039    52.548456 
25880000       129400   0.43269509   -2636.0204    540.43616   -2095.5842    51.015921 
25920000       129600   0.40660882   -2584.3199    507.85441   -2076.4654    49.017437 
25960000       129800   0.43573239   -2608.2949    544.22975   -2064.0652    46.081963 
26000000       130000   0.40490517    -2594.521    505.72656   -2088.7945    44.353746 
26040000       130200   0.41192875   -2591.2682      514.499   -2076.7692     42.38505 
26080000       130400   0.41254097   -2588.4471    515.26367   -2073.1834    34.423351 
26120000       130600   0.41441639   -2651.2527    517.60607   -2133.6466    24.722046 
26160000       130800    0.4107003   -2642.9731    512.96468   -2130.0084    24.218634 
26200000       131000   0.43152661   -2611.8982    538.97674   -2072.9215    25.960299 
26240000       131200   0.42042092   -2606.7746    525.10573   -2081.6688    23.664483 
26280000       131400   0.43639192   -2606.5103    545.05351   -2061.4568    22.858469 
26320000       131600   0.42492869   -2590.3813    530.73594   -2059.6454    22.597921 
26360000       131800   0.42405831   -2556.1598    529.64883    -2026.511    24.846276 
26400000       132000   0.42867051   -2538.1925    535.40947   -2002.7831    24.629481 
26440000       132200   0.43329293   -2587.6388    541.18287    -2046.456    23.163018 
26480000       132400   0.43914033   -2564.6596    548.48627   -2016.1733    22.931686 
26520000       132600   0.43657937   -2583.2963    545.28764   -2038.0087    22.973152 
26560000       132800   0.44262928   -2609.0545    552.84397   -2056.2105    23.134943 
26600000       133000   0.43357172   -2536.8292    541.53108   -1995.2981    24.633311 
26640000       133200   0.43234149   -2584.5717    539.99452   -2044.5772    23.833715 
26680000       133400   0.42223664   -2627.1696    527.37357    -2099.796    23.344792 
26720000       133600    0.4211101   -2607.5467    525.96652   -2081.5802    23.824936 
26760000       133800   0.45155095   -2570.9934    563.98714   -2007.0063     24.04696 
26800000       134000   0.42261942   -2550.1797    527.85166    -2022.328    23.636404 
26840000       134200   0.44927097    -2523.318    561.13944   -1962.1786    23.675844 
26880000       134400   0.41866813   -2563.8578     522.9165   -2040.9413     23.21724 
26920000       134600    0.4275985   -2517.6441    534.07052   -1983.5736    24.119227 
26960000       134800   0.43864864   -2559.1594    547.87216   -2011.2873    24.619588 
27000000       135000   0.44294354   -2607.9677    553.23648   -2054.7312    22.951437 
27040000       135200   0.42343213   -2521.2788    528.86673    -1992.412    24.431538 
27080000       135400   0.43581187   -2538.4322    544.32903   -1994.1031    23.529582 
27120000       135600   0.42123242    -2570.942     526.1193   -2044.8228      23.4605 
27160000       135800   0.41324701   -2546.3236    516.14552    -2030.178    24.072076 
27200000       136000   0.42812018   -2516.5715     534.7221   -1981.8493    23.869166 
27240000       136200     0.436533   -2506.7844    545.22971   -1961.5547    24.074499 
27280000       136400   0.42525531   -2508.6191    531.14388   -1977.4753    23.624056 
27320000       136600   0.44915943   -2574.2125    561.00013   -2013.2124     23.04071 
27360000       136800   0.44120592   -2557.0096    551.06619   -2005.9435    24.071821 
27400000       137000   0.44473488   -2520.4645    555.47386   -1964.9906    23.185656 
27440000       137200   0.43904775   -2557.8386    548.37063    -2009.468    24.329803 
27480000       137400   0.44895133   -2513.5701    560.74022   -1952.8299     23.99051 
27520000       137600   0.44848033   -2503.7244    560.15194   -1943.5725    23.947923 
27560000       137800   0.44287162   -2544.8714    553.14665   -1991.7248    22.920315 
27600000       138000   0.44178071   -2513.1087    551.78411   -1961.3246    23.739047 
27640000       138200   0.44517177   -2598.0019    556.01954   -2041.9823    22.593158 
27680000       138400   0.42356955   -2575.5688    529.03837   -2046.5304    23.175718 
27720000       138600   0.43790956   -2614.3952    546.94904   -2067.4461    22.606788 
27760000       138800    0.4440037   -2605.0685    554.56063   -2050.5079    23.222713 
27800000       139000   0.43546478   -2551.0051    543.89551   -2007.1096    23.360276 
27840000       139200   0.42798425   -2546.4694    534.55232   -2011.9171    23.160871 
27880000       139400    0.4349103   -2542.5841    543.20297   -1999.3812    22.992171 
27920000       139600   0.46108754    -2530.576    575.89833   -1954.6777    23.131828 
27960000       139800   0.44956764   -2521.4928    561.50998   -1959.9828    23.378795 
28000000       140000   0.42069701   -2522.8782    525.45057   -1997.4276    23.606058 
28040000       140200   0.44123777   -2578.9286    551.10597   -2027.8227    23.099999 
28080000       140400   0.44563492   -2547.7171    556.59801   -1991.1191    23.501939 
28120000       140600    0.4285711   -2548.7775     535.2853   -2013.4922    23.554136 
28160000       140800   0.44661829   -2496.6289    557.82625   -1938.8026    23.915283 
28200000       141000   0.44797425   -2582.7433    559.51984   -2023.2235     23.37699 
28240000       141200   0.45859272   -2537.5214     572.7823   -1964.7391    23.908661 
28280000       141400   0.45060014   -2529.3862    562.79957   -1966.5866    24.063077 
28320000       141600   0.44109463   -2495.5447    550.92719   -1944.6175     24.68699 
28360000       141800   0.44204395   -2513.7716     552.1129   -1961.6587    24.467921 
28400000       142000   0.42293605   -2543.1371    528.24713     -2014.89    23.741533 
28440000       142200   0.42466157   -2499.2084     530.4023   -1968.8061    25.188565 
28480000       142400   0.45979169   -2556.7178    574.27982   -1982.4379    24.498222 
28520000       142600   0.43325043   -2537.7267    541.12979    -1996.597     24.96784 
28560000       142800   0.44638989   -2609.1035    557.54097   -2051.5626    24.476497 
28600000       143000   0.42494824   -2568.1417    530.76035   -2037.3814    24.577115 
28640000       143200    0.4318889   -2562.7186    539.42923   -2023.2894    24.709754 
28680000       143400   0.42911439   -2492.0704    535.96387   -1956.1065    25.743982 
28720000       143600   0.43034288    -2534.164    537.49826   -1996.6657    25.886419 
28760000       143800   0.42489543   -2489.4946    530.69439   -1958.8003    26.081465 
28800000       144000   0.42357867   -2490.5767    529.04976   -1961.5269    27.150254 
28840000       144200   0.45455597   -2535.1608    567.74041   -1967.4204    25.696797 
28880000       144400   0.44687129   -2493.4841    558.14224   -1935.3418     25.76863 
28920000       144600   0.43894579   -2512.4071     548.2433   -1964.1638    25.863256 
28960000       144800   0.43380627   -2475.2303    541.82404   -1933.4063    25.716206 
29000000       145000   0.45385351   -2518.6769    566.86304   -1951.8139    25.729859 
29040000       145200   0.43638919   -2500.0212     545.0501   -1954.9711    27.203197 
29080000       145400   0.44424887   -2489.8957    554.86683   -1935.0288    27.229313 
29120000       145600   0.43509708   -2564.3067    543.43625   -2020.8704      26.6505 
29160000       145800   0.42444752    -2532.472    530.13496    -2002.337    27.067407 
29200000       146000   0.44122081   -2562.4997     551.0848   -2011.4149    27.121419 
29240000       146200   0.43087253    -2488.144     538.1598   -1949.9842    27.370494 
29280000       146400    0.4338826   -2464.5018    541.91937   -1922.5824    28.130056 
29320000       146600   0.44831401   -2514.9528     559.9442   -1955.0086    27.019938 
29360000       146800   0.42308879   -2505.0001     528.4379   -1976.5622    26.785606 
29400000       147000   0.41436541    -2507.366     517.5424   -1989.8236    26.663635 
29440000       147200   0.44579592   -2491.7582     556.7991   -1934.9591    27.072759 
29480000       147400   0.42880808    -2465.326    535.58129   -1929.7447    27.417893 
29520000       147600    0.4289554   -2534.2932    535.76529   -1998.5279    27.627161 
29560000       147800   0.44648631   -2496.0484     557.6614    -1938.387    28.582028 
29600000       148000   0.44436277    -2503.919     555.0091   -1948.9099    27.458363 
29640000       148200   0.45248373   -2519.3122    565.15218     -1954.16     27.44798 
29680000       148400   0.43690395   -2428.7852    545.69304   -1883.0922    27.718766 
29720000       148600   0.43826856   -2494.7075    547.39743   -1947.3101     27.48695 
29760000       148800   0.43144487   -2506.8609    538.87465   -1967.9862    27.302451 
29800000       149000   0.41571428   -2531.9837    519.22713   -2012.7566     28.37464 
29840000       149200   0.43590428   -2500.5635    544.44445   -1956.1191    28.609511 
29880000       149400   0.42524093    -2500.813    531.12592   -1969.6871    28.977237 
29920000       149600   0.45808018    -2524.028    572.14215   -1951.8858    28.796901 
29960000       149800   0.43181385   -2545.5894    539.33549   -2006.2539     27.23381 
30000000       150000   0.41703006   -2521.6232    520.87055   -2000.7527    27.471814 
30040000       150200   0.43629475   -2504.5226    544.93215   -1959.5905    26.331907 
30080000       150400   0.41778869   -2574.8208    521.81808   -2053.0028    23.962413 
30120000       150600   0.42242018   -2573.9599    527.60281    -2046.357    23.312145 
30160000       150800    0.4310919   -2468.6206    538.43378   -1930.1868    24.159203 
30200000       151000   0.43250044   -2536.1615    540.19305   -1995.9684    23.687231 
30240000       151200   0.45955652   -2529.4261     573.9861     -1955.44    23.554783 
30280000       151400    0.4328662   -2530.6213    540.64988   -1989.9714    23.487585 
30320000       151600   0.45401586    -2527.813    567.06581   -1960.7472    23.481122 
30360000       151800   0.41758184   -2543.7219    521.55972   -2022.1622    23.439574 
30400000       152000   0.44668334   -2530.3445    557.90749    -1972.437    23.178489 
30440000       152200   0.43066345   -2586.4829    537.89864   -2048.5843    22.743353 
30480000       152400   0.43937526   -2571.9006    548.77969   -2023.1209    23.152267 
30520000       152600   0.44091926   -2547.2664    550.70816   -1996.5582    23.315499 
30560000       152800   0.44166947   -2553.3127    551.64517   -2001.6675    23.860344 
30600000       153000   0.42457351   -2506.0548    530.29231   -1975.7625    24.248927 
30640000       153200   0.42953622   -2468.4093    536.49074   -1931.9186    24.019218 
30680000       153400   0.43869538    -2583.805    547.93053   -2035.8745    23.196183 
30720000       153600   0.44270427   -2500.8679    552.93763   -1947.9302     23.81247 
30760000       153800   0.42904571   -2444.3629     535.8781   -1908.4848    25.090668 
30800000       154000   0.46376091   -2588.2105    579.23738   -2008.9731    23.201252 
30840000       154200   0.42973182    -2570.538    536.73504    -2033.803    23.642021 
30880000       154400   0.43293285   -2504.8426    540.73313   -1964.1094    25.312554 
30920000       154600   0.42859491   -2561.3597    535.31505   -2026.0447    24.260169 
30960000       154800   0.46825241   -2576.1009    584.84726   -1991.2536      24.7949 
31000000       155000   0.42532148   -2526.9732    531.22652   -1995.7467    23.908557 
31040000       155200   0.45246295   -2517.7881    565.12623   -1952.6619    24.198688 
31080000       155400   0.43448122   -2512.8195    542.66704   -1970.1524    24.624983 
31120000       155600    0.4519876   -2527.9008    564.53251   -1963.3683    23.644835 
31160000       155800   0.43470694   -2529.9931    542.94897   -1987.0441    23.627829 
31200000       156000   0.43079799   -2517.1795    538.06669   -1979.1129    23.920803 
31240000       156200   0.45992157   -2562.0582    574.44204   -1987.6162    23.647184 
31280000       156400   0.43289947   -2573.0355    540.69143   -2032.3441    23.749139 
31320000       156600   0.45998413   -2583.0996    574.52017   -2008.5794    23.467025 
31360000       156800   0.41855483   -2538.8722    522.77498   -2016.0972    23.434117 
31400000       157000   0.42136401   -2499.0781    526.28365   -1972.7944    24.224593 
31440000       157200   0.44536366   -2571.6245    556.25921   -2015.3653    23.900975 
31480000       157400   0.43559476   -2546.1085    544.05786   -2002.0506    23.775773 
31520000       157600    0.4405684   -2546.7362    550.26993   -1996.4663    24.284299 
31560000       157800   0.43715955   -2543.9261    546.01227   -1997.9138    23.883922 
31600000       158000    0.4413646   -2492.4495    551.26439   -1941.1851    23.257534 
31640000       158200   0.45855132    -2484.923    572.73059   -1912.1924    24.201701 
31680000       158400   0.46574112   -2452.2086    581.71066    -1870.498    24.689696 
31720000       158600   0.44898281   -2451.6575    560.77953   -1890.8779     24.69646 
31760000       158800   0.43338209   -2544.2965    541.29423   -2003.0022    23.761294 
31800000       159000   0.43467247    -2577.775    542.90591   -2034.8691    24.390392 
31840000       159200   0.43637597   -2616.4809    545.03359   -2071.4474    24.053256 
31880000       159400    0.4137154    -2617.048    516.73053   -2100.3175    25.009249 
31920000       159600   0.42564789   -2619.6912    531.63421    -2088.057    24.690939 
31960000       159800   0.44382357   -2532.8641    554.33563   -1978.5285    25.871406 
32000000       160000   0.44413729   -2535.8329    554.72747   -1981.1054    24.539941 
32040000       160200   0.45632151   -2498.7892    569.94556   -1928.8436    24.824801 
32080000       160400   0.42181146   -2532.8728    526.84251   -2006.0303    24.420618 
32120000       160600   0.45090817    -2593.754     563.1843   -2030.5697    24.289926 
32160000       160800   0.42378381    -2546.902    529.30597    -2017.596     24.20781 
32200000       161000   0.41975525   -2563.2155    524.27431   -2038.9412    24.617021 
32240000       161200   0.42751853   -2602.4423    533.97065   -2068.4717    24.269438 
32280000       161400   0.42477541   -2476.6785    530.54449    -1946.134    26.203778 
32320000       161600   0.45167667   -2574.2711    564.14416    -2010.127    24.774345 
32360000       161800   0.41914394   -2546.8942    523.51078   -2023.3835    25.036234 
32400000       162000    0.4342235    -2557.976    542.34515   -2015.6309    24.729935 
32440000       162200    0.4413314   -2547.9532    551.22292   -1996.7303     25.58417 
32480000       162400    0.4710981   -2574.7395    588.40153   -1986.3379    24.729776 
32520000       162600   0.42980927   -2503.2713    536.83178   -1966.4395    25.634843 
32560000       162800    0.4531283   -2515.7865    565.95724   -1949.8292    25.418929 
32600000       163000   0.44366365   -2485.6972     554.1359   -1931.5613    27.203194 
32640000       163200   0.43247236   -2445.0101    540.15798   -1904.8521    26.155828 
32680000       163400   0.43983315   -2469.5445     549.3516   -1920.1929    27.814004 
32720000       163600   0.43164682   -2545.3085    539.12688   -2006.1817    26.857096 
32760000       163800   0.41399726   -2522.8361    517.08258   -2005.7535    26.517109 
32800000       164000    0.4452085   -2638.7433    556.06542   -2082.6779    25.964166 
32840000       164200   0.44028484   -2518.3026    549.91577   -1968.3868    25.606784 
32880000       164400   0.42393892   -2530.5069    529.49971   -2001.0072    26.799219 
32920000       164600   0.41966475   -2491.8355    524.16128   -1967.6743    26.208113 
32960000       164800   0.42735293   -2527.1213    533.76381   -1993.3575     25.45702 
33000000       165000   0.46991461   -2528.9691    586.92335   -1942.0458    25.328221 
33040000       165200   0.44266842   -2530.8593    552.89286   -1977.9665    26.379284 
33080000       165400   0.46399629    -2581.609    579.53136   -2002.0776    25.684947 
33120000       165600    0.4275557   -2520.6972    534.01707   -1986.6802    25.880636 
33160000       165800   0.43099253   -2534.0095    538.30967   -1995.6999    26.022374 
33200000       166000   0.43538671   -2515.1316      543.798   -1971.3336    26.496961 
33240000       166200   0.45706431   -2554.9492    570.87332   -1984.0759    27.313535 
33280000       166400   0.42965264   -2558.1973    536.63615   -2021.5611    26.991997 
33320000       166600   0.44105956   -2504.1458     550.8834   -1953.2624    26.557247 
33360000       166800     0.436824   -2518.5029    545.59317   -1972.9097    26.685588 
33400000       167000   0.43372328   -2550.7343    541.72038   -2009.0139    26.767733 
33440000       167200    0.4362544   -2536.9579    544.88174   -1992.0762    27.707276 
33480000       167400   0.43856113   -2555.0477    547.76286   -2007.2849    26.262466 
33520000       167600   0.41154317   -2601.4644    514.01742    -2087.447     26.81136 
33560000       167800   0.42560403   -2530.8455    531.57944   -1999.2661    27.506393 
33600000       168000   0.42930513   -2504.2385    536.20211   -1968.0364    27.554616 
33640000       168200   0.42463938   -2489.0773    530.37458   -1958.7027    27.159725 
33680000       168400   0.41031872   -2507.1865    512.48809   -1994.6985    25.552244 
33720000       168600   0.43912015   -2555.4569    548.46107   -2006.9958    23.798924 
33760000       168800   0.43275479    -2562.452    540.51074   -2021.9412    23.561475 
33800000       169000   0.42871776   -2502.3073    535.46848   -1966.8388    23.974849 
33840000       169200   0.41998427   -2476.1158    524.56035   -1951.5555    23.955173 
33880000       169400   0.43791172   -2532.7514    546.95174   -1985.7997    23.559015 
33920000       169600   0.43689568   -2521.1537    545.68271    -1975.471    23.312078 
33960000       169800   0.46557949   -2488.0655    581.50878   -1906.5567     24.66811 
34000000       170000   0.42730043   -2454.8551    533.69823   -1921.1569    24.227843 
34040000       170200   0.43376841   -2515.8866    541.77674   -1974.1098    23.796726 
34080000       170400   0.44529267   -2554.7642    556.17055   -1998.5937    23.209862 
34120000       170600   0.42533919   -2581.6211    531.24865   -2050.3724    23.243319 
34160000       170800   0.44738275   -2567.1382    558.78105   -2008.3572     22.86434 
34200000       171000   0.44496142   -2526.6312    555.75681   -1970.8744    23.587006 
34240000       171200   0.44856011   -2541.7405    560.25157    -1981.489    23.564765 
34280000       171400   0.41564539   -2516.3927    519.14109   -1997.2516    23.597588 
34320000       171600    0.4130162   -2487.2997    515.85724   -1971.4425    23.821959 
34360000       171800   0.44521255   -2610.9375    556.07047    -2054.867    22.810238 
34400000       172000   0.44995226   -2555.8971    561.99037   -1993.9068    23.118566 
34440000       172200   0.44783787   -2550.7403     559.3495   -1991.3908    23.585058 
34480000       172400   0.43159341   -2538.5836    539.06017   -1999.5235    23.736627 
34520000       172600   0.44688545    -2557.674    558.15992   -1999.5141    23.486224 
34560000       172800    0.4544251   -2574.2593    567.57695   -2006.6824     23.15073 
34600000       173000   0.43140161   -2558.7444    538.82061   -2019.9238    23.060534 
34640000       173200   0.44877447    -2614.518    560.51932   -2053.9986    22.726962 
34680000       173400   0.43824254   -2599.6658    547.36494   -2052.3009     23.30977 
34720000       173600   0.45230283   -2589.6274    564.92623   -2024.7011    23.354553 
34760000       173800   0.41810415   -2583.4398    522.21208   -2061.2277    23.100654 
34800000       174000   0.42258075   -2496.3959    527.80335   -1968.5926    24.663945 
34840000       174200   0.43986863   -2560.0556    549.39592   -2010.6597    23.339284 
34880000       174400   0.42394992   -2556.6557    529.51345   -2027.1423    22.968599 
34920000       174600   0.43142024   -2500.7051    538.84388   -1961.8613    23.644085 
34960000       174800   0.44062724    -2617.173    550.34342   -2066.8295    22.622265 
35000000       175000   0.43781561   -2553.3404     546.8317   -2006.5087    22.720197 
35040000       175200    0.4487906   -2529.3792    560.53946   -1968.8397    23.363385 
35080000       175400   0.43823708   -2533.5622    547.35811   -1986.2041    22.798178 
35120000       175600   0.45915556   -2571.7274     573.4853   -1998.2421     23.42087 
35160000       175800    0.4348412   -2554.3189    543.11666   -2011.2022    23.524244 
35200000       176000   0.44145184    -2536.964    551.37335   -1985.5907    24.241714 
35240000       176200   0.43079079     -2484.59     538.0577   -1946.5323    24.764038 
35280000       176400   0.43199633   -2575.2555    539.56341   -2035.6921    23.238943 
35320000       176600   0.42160558   -2561.8564    526.58537    -2035.271    23.168378 
35360000       176800   0.44192336   -2595.5053    551.96228    -2043.543    23.099661 
35400000       177000   0.42638292   -2546.7838    532.55226   -2014.2316    23.823517 
35440000       177200   0.41479267   -2492.1429    518.07605   -1974.0668    23.478956 
35480000       177400   0.45140144   -2508.1457     563.8004   -1944.3453    23.783012 
35520000       177600   0.43486254   -2569.1511    543.14331   -2026.0078    23.501214 
35560000       177800   0.46342895   -2546.6277    578.82276   -1967.8049    23.857327 
35600000       178000   0.43640971   -2552.9533    545.07573   -2007.8776     23.36523 
35640000       178200   0.44686131   -2552.8121    558.12977   -1994.6823    23.664145 
35680000       178400   0.43382504   -2534.8108    541.84748   -1992.9634    24.164112 
35720000       178600   0.43129753   -2575.6939    538.69061   -2037.0033    22.855365 
35760000       178800    0.4456402   -2565.9781    556.60461   -2009.3734    24.567721 
35800000       179000   0.44143609    -2593.223    551.35368   -2041.8694    23.765366 
35840000       179200   0.42018255   -2584.4358    524.80801   -2059.6278     23.00044 
35880000       179400   0.41946832   -2594.9186    523.91593   -2071.0026     23.05436 
35920000       179600   0.41955367    -2589.706    524.02253   -2065.6835    23.152923 
35960000       179800   0.44120285   -2593.9112    551.06236   -2042.8489    23.515177 
36000000       180000   0.42184439   -2587.9275    526.88365   -2061.0439    22.649037 
36040000       180200   0.42951925   -2543.6453    536.46954   -2007.1758    23.778387 
36080000       180400    0.4346292   -2563.1711    542.85187   -2020.3192    23.575446 
36120000       180600   0.46133786    -2562.121    576.21099     -1985.91    23.855235 
36160000       180800   0.43652556    -2564.019    545.22042   -2018.7986    24.059898 
36200000       181000   0.43874747   -2525.3035    547.99559   -1977.3079    24.202197 
36240000       181200   0.41940765   -2576.7051    523.84016   -2052.8649    23.301176 
36280000       181400   0.46344856   -2511.8717    578.84725   -1933.0244    24.447094 
36320000       181600   0.43059105   -2507.3997    537.80822   -1969.5915    25.131552 
36360000       181800   0.46753897   -2620.1231    583.95617   -2036.1669    23.671979 
36400000       182000   0.44107314    -2612.102    550.90035   -2061.2016    22.905611 
36440000       182200   0.41402201   -2523.6557    517.11349   -2006.5422    23.870592 
36480000       182400   0.41932973   -2543.7952    523.74284   -2020.0523    23.699423 
36520000       182600   0.40908985   -2577.1933    510.95322   -2066.2401    23.577919 
36560000       182800   0.42935123   -2570.8382    536.25969   -2034.5785    23.759976 
36600000       183000   0.43597539   -2556.3586    544.53326   -2011.8254    23.774448 
36640000       183200   0.44251749    -2505.651    552.70435   -1952.9467    24.768848 
36680000       183400   0.44418811   -2536.1294    554.79095   -1981.3385    23.993525 
36720000       183600   0.44433958   -2623.3358    554.98013   -2068.3557    23.415339 
36760000       183800   0.42946837   -2560.9632    536.40599   -2024.5572    23.061265 
36800000       184000   0.43740448   -2555.2658     546.3182   -2008.9476    22.937007 
36840000       184200    0.4380996   -2507.9002     547.1864   -1960.7138    24.009902 
36880000       184400   0.44252427   -2588.9543    552.71281   -2036.2415    23.656577 
36920000       184600   0.44698414   -2610.9906    558.28319   -2052.7074    23.055257 
36960000       184800   0.41726329   -2638.2691    521.16185   -2117.1073    23.494763 
37000000       185000   0.42129828   -2583.8712    526.20155   -2057.6696    23.053659 
37040000       185200   0.43937789   -2572.4216    548.78299   -2023.6386    22.865204 
37080000       185400   0.43236861   -2538.8395    540.02839   -1998.8111    23.731687 
37120000       185600   0.43302532    -2573.963    540.84863   -2033.1144    22.849015 
37160000       185800   0.42528357   -2522.1471    531.17918   -1990.9679    24.738599 
37200000       186000   0.43551784   -2571.4571    543.96178   -2027.4953    23.108234 
37240000       186200   0.43124766   -2578.7706    538.62832   -2040.1423    22.885174 
37280000       186400    0.4412319   -2539.8345    551.09864   -1988.7358    23.689164 
37320000       186600   0.41963166   -2530.6829    524.11994    -2006.563    23.251329 
37360000       186800   0.43646791   -2559.7019    545.14842   -2014.5534    23.220124 
37400000       187000   0.43496596   -2543.5523    543.27249   -2000.2798    22.745231 
37440000       187200   0.43998768   -2545.3864    549.54461   -1995.8418    23.426302 
37480000       187400   0.43673626   -2534.4488    545.48359   -1988.9652     23.84171 
37520000       187600   0.42595819    -2511.655    532.02178   -1979.6332    23.560178 
37560000       187800   0.45602326   -2562.6829    569.57306   -1993.1098    22.705521 
37600000       188000   0.46425277   -2593.2872    579.85171   -2013.4355    22.995707 
37640000       188200   0.43805708   -2593.2887    547.13329   -2046.1554    23.097971 
37680000       188400    0.4418835   -2528.0955    551.91249    -1976.183    23.666833 
37720000       188600   0.43700666   -2547.0456    545.82131   -2001.2243    23.871198 
37760000       188800   0.43937395    -2582.888    548.77807   -2034.1099    23.282609 
37800000       189000   0.44878256    -2570.867    560.52942   -2010.3376    23.023433 
37840000       189200   0.44644623   -2597.9287    557.61134   -2040.3173    23.634672 
37880000       189400   0.43272939   -2622.7779    540.47901   -2082.2989    23.360937 
37920000       189600   0.42402177   -2567.2203     529.6032   -2037.6171     23.03905 
37960000       189800   0.44558262    -2594.941     556.5327   -2038.4083     22.90887 
38000000       190000   0.43761194   -2616.9942    546.57732   -2070.4169    22.609037 
38040000       190200   0.45167973    -2621.315    564.14799   -2057.1671    22.734021 
38080000       190400   0.43633938    -2641.106    544.98789   -2096.1181    22.620187 
38120000       190600   0.42078309    -2597.541    525.55808   -2071.9829    23.254058 
38160000       190800   0.44406187   -2624.0302    554.63327   -2069.3969    22.859622 
38200000       191000   0.44314365   -2548.8054    553.48642    -1995.319    24.535448 
38240000       191200   0.43727158   -2553.5904     546.1522   -2007.4382    23.724439 
38280000       191400   0.44951656   -2567.7559    561.44618   -2006.3097    23.237051 
38320000       191600   0.44029987   -2556.1383    549.93454   -2006.2038     24.00677 
38360000       191800   0.44333374   -2590.1812    553.72385   -2036.4573    23.193357 
38400000       192000   0.42818947   -2549.7883    534.80865   -2014.9797    23.388487 
38440000       192200   0.42145908   -2562.7629    526.40239   -2036.3605    23.919789 
38480000       192400   0.45752879   -2638.9439    571.45346   -2067.4905    23.049897 
38520000       192600   0.42680947   -2557.3912    533.08503   -2024.3062    23.598621 
38560000       192800    0.4113944   -2545.6713     513.8316   -2031.8397    23.667224 
38600000       193000   0.42889282   -2530.9269    535.68713   -1995.2397    25.026729 
38640000       193200   0.41924022   -2537.8204    523.63103   -2014.1894    23.652559 
38680000       193400    0.4402801   -2552.2565    549.90984   -2002.3467    23.915161 
38720000       193600   0.45709202   -2576.3233    570.90794   -2005.4153    23.550027 
38760000       193800   0.43626869   -2607.2261     544.8996   -2062.3265    24.474489 
38800000       194000   0.42866553   -2570.1219    535.40324   -2034.7187    23.408287 
38840000       194200   0.44004171    -2577.454     549.6121   -2027.8419     23.42576 
38880000       194400   0.45452068   -2536.6874    567.69633    -1968.991    23.050849 
38920000       194600   0.45071533   -2572.4084    562.94345    -2009.465    23.336094 
38960000       194800   0.43829952   -2526.0044     547.4361   -1978.5683    23.502732 
39000000       195000   0.46268261   -2559.1684    577.89058   -1981.2778    23.354376 
39040000       195200   0.44450282   -2513.9809    555.18402   -1958.7969    23.628427 
39080000       195400   0.43271723   -2539.4993    540.46382   -1999.0355    23.595255 
39120000       195600   0.43414268   -2576.0592     542.2442    -2033.815    22.822958 
39160000       195800   0.43259655   -2539.2093     540.3131   -1998.8962    23.224215 
39200000       196000   0.43791119   -2536.6477    546.95108   -1989.6967    23.723649 
39240000       196200   0.42476008   -2506.3844    530.52534   -1975.8591    24.581708 
39280000       196400    0.4258372   -2575.5189    531.87066   -2043.6482    23.719708 
39320000       196600   0.44523639   -2545.1468    556.10025   -1989.0466    23.099332 
39360000       196800    0.4533918   -2531.0416    566.28636   -1964.7552    23.170207 
39400000       197000   0.44029862   -2535.2472    549.93297   -1985.3143     24.21215 
39440000       197200   0.43949535   -2592.0747     548.9297    -2043.145     23.51657 
39480000       197400   0.44476238   -2594.1988    555.50821   -2038.6905    23.268195 
39520000       197600   0.42796364   -2520.0274    534.52659   -1985.5008    23.672197 
39560000       197800   0.42081632   -2531.5101    525.59959   -2005.9105    23.255736 
39600000       198000   0.44950152   -2583.1746     561.4274   -2021.7472    22.984835 
39640000       198200   0.43269546   -2527.4209    540.43663   -1986.9843    23.777567 
39680000       198400   0.44476497   -2570.1968    555.51145   -2014.6854    23.610343 
39720000       198600   0.43004944   -2565.9757    537.13175    -2028.844    23.919778 
39760000       198800   0.44139077   -2545.8002    551.29707   -1994.5031    23.710657 
39800000       199000   0.41099874   -2510.4219    513.33743   -1997.0844    23.893593 
39840000       199200   0.43678263   -2517.2608     545.5415   -1971.7193    25.095037 
39880000       199400   0.42500674   -2502.7852    530.83342   -1971.9518      25.9234 
39920000       199600   0.42771809   -2506.6958     534.2199   -1972.4759    26.286783 
39960000       199800    0.4157811   -2547.3544     519.3106   -2028.0438    23.076181 
40000000       200000   0.45902277   -2542.6926    573.31945   -1969.3732    22.982353 
Loop time of 5598.55 on 8 procs for 40000000 steps with 1250 atoms

Performance: 3086512.837 tau/day, 7144.706 timesteps/s
99.7% CPU use with 8 MPI tasks x no OpenMP threads

MPI task timing breakdown:
Section |  min time  |  avg time  |  max time  |%varavg| %total
---------------------------------------------------------------
Pair    | 1065.9     | 1230.4     | 1411.5     | 434.8 | 21.98
Neigh   | 143.6      | 167.38     | 193.24     | 166.5 |  2.99
Comm    | 714.33     | 1262.5     | 1938.1     |1437.7 | 22.55
Output  | 0.60769    | 0.61639    | 0.61811    |   0.4 |  0.01
Modify  | 1784.3     | 2334.1     | 2936.5     |1037.4 | 41.69
Other   |            | 603.6      |            |       | 10.78

Nlocal:        156.250 ave         278 max          15 min
Histogram: 2 1 1 0 0 0 0 0 0 4
Nghost:        111.000 ave         205 max          10 min
Histogram: 2 0 0 2 0 0 0 2 1 1
Neighs:        1700.12 ave        3303 max          12 min
Histogram: 3 1 0 0 0 0 0 0 0 4

Total # of neighbors = 13601
Ave neighs/atom = 10.880800
Neighbor list builds = 3219036
Dangerous builds = 0
Total wall time: 1:33:18
